 $CONTRL SCFTYP=RHF RUNTYP=HESSIAN EXETYP=RUN
 MAXIT=200 ICHARG=0 MULT=1 ISPHER=1
 COORD=CART UNITS=ANGS $END
 $BASIS GBASIS=CCD $END
 $SYSTEM TIMLIM=1300 MWORDS=100 PARALL=.TRUE. $END
 $SCF DIRSCF=.TRUE. $END 
 $STATPT HESS=READ $END

 $DATA
bpy.mol
C1
C      6.0     -2.4408000000    1.4835000000    1.5397000000 
C      6.0     -2.2620000000    0.0622000000    1.7244000000 
C      6.0     -1.2316000000   -0.5489000000    1.1145000000 
C      6.0     -0.2411000000    0.1621000000    0.2630000000 
N      7.0     -0.4300000000    1.5801000000    0.1947000000 
C      6.0     -1.5511000000    2.1553000000    0.8007000000 
C      6.0      0.6684000000   -0.6002000000   -0.4305000000 
C      6.0      0.6928000000    2.4931000000   -0.0867000000 
C      6.0      1.2019000000   -0.1010000000   -1.7223000000 
C      6.0      1.8872000000   -0.8947000000   -2.5679000000 
C      6.0      2.1571000000   -2.2704000000   -2.2245000000 
C      6.0      1.7698000000   -2.7081000000   -1.0220000000 
N      7.0      1.1046000000   -1.9205000000   -0.0806000000 
C      6.0      1.2674000000   -2.3152000000    1.3300000000 
C      6.0      2.3540000000   -0.3300000000   -3.8597000000 
O      8.0      2.8859000000   -1.0027000000   -4.7369000000 
C      6.0     -3.2725000000   -0.6692000000    2.5534000000 
H      1.0     -3.2791000000    1.9868000000    2.0053000000 
H      1.0     -1.1771000000   -1.6281000000    1.1647000000 
H      1.0     -1.6397000000    3.2309000000    0.6785000000 
H      1.0      0.5742000000    2.9461000000   -1.0778000000 
H      1.0      1.6654000000    1.9925000000   -0.0271000000 
H      1.0      0.7297000000    3.3041000000    0.6511000000 
H      1.0      0.9376000000    0.8997000000   -2.0311000000 
H      1.0      2.6951000000   -2.9053000000   -2.9204000000 
H      1.0      1.9948000000   -3.7180000000   -0.6940000000 
H      1.0      1.1386000000   -1.4762000000    2.0237000000 
H      1.0      2.2778000000   -2.7014000000    1.5098000000 
H      1.0      0.5588000000   -3.1122000000    1.5878000000 
H      1.0      2.2173000000    0.7612000000   -3.9833000000 
H      1.0     -2.9386000000   -1.6842000000    2.7890000000 
H      1.0     -3.4385000000   -0.1552000000    3.5054000000 
H      1.0     -4.2264000000   -0.7463000000    2.0291000000 
 $END


