 $CONTRL COORD=CART UNITS=ANGS $END

 $DATA
bpy.mol
C1
C      6.0     -2.0550000000   -1.5996000000    1.8495000000 
C      6.0     -1.0247000000   -0.7962000000    2.4952000000 
C      6.0      0.0867000000   -0.4074000000    1.7980000000 
C      6.0      0.1770000000   -0.7669000000    0.3585000000 
N      7.0     -0.5199000000   -1.9596000000    0.0377000000 
C      6.0     -1.7321000000   -2.1909000000    0.6907000000 
C      6.0      0.6104000000    0.1843000000   -0.5308000000 
C      6.0      0.3204000000   -3.1355000000   -0.3126000000 
C      6.0      1.5506000000    1.2326000000   -0.0611000000 
C      6.0      1.6508000000    2.4071000000   -0.6972000000 
C      6.0      0.7685000000    2.7005000000   -1.8093000000 
C      6.0      0.1121000000    1.6752000000   -2.3686000000 
N      7.0      0.1585000000    0.3544000000   -1.8762000000 
C      6.0     -0.6668000000   -0.6426000000   -2.5604000000 
Cl    17.0      2.7826000000    3.6097000000   -0.1992000000 
N      7.0     -1.2004000000   -0.2379000000    3.8322000000 
O      8.0     -1.9575000000   -0.8458000000    4.5945000000 
O      8.0     -0.5916000000    0.8092000000    4.1252000000 
H      1.0     -3.0052000000   -1.7855000000    2.3250000000 
H      1.0      0.8536000000    0.2320000000    2.2425000000 
H      1.0     -2.4005000000   -2.8355000000    0.1262000000 
H      1.0      1.1598000000   -2.8202000000   -0.9421000000 
H      1.0     -0.2481000000   -3.8740000000   -0.8667000000 
H      1.0      0.7409000000   -3.6474000000    0.5758000000 
H      1.0      2.2169000000    1.0103000000    0.7778000000 
H      1.0      0.7114000000    3.7469000000   -2.1210000000 
H      1.0     -0.6008000000    1.8310000000   -3.1893000000 
H      1.0     -0.1863000000   -1.6304000000   -2.5476000000 
H      1.0     -1.6688000000   -0.6917000000   -2.1194000000 
H      1.0     -0.7791000000   -0.3899000000   -3.6273000000 
 $END


