 $CONTRL COORD=CART UNITS=ANGS $END

 $DATA
bpy.mol
C1
C      6.0      0.9837000000    0.5112000000    3.5685000000 
C      6.0      1.5480000000   -0.6302000000    2.8982000000 
C      6.0      1.1629000000   -0.9378000000    1.6583000000 
C      6.0      0.1052000000   -0.1836000000    0.9368000000 
N      7.0     -0.4884000000    0.8933000000    1.6750000000 
C      6.0      0.0147000000    1.2012000000    2.9444000000 
C      6.0     -0.1897000000   -0.5006000000   -0.3639000000 
C      6.0     -1.2106000000    1.9706000000    0.9692000000 
C      6.0      0.8979000000   -0.9923000000   -1.2458000000 
C      6.0      0.8128000000   -0.9269000000   -2.5884000000 
C      6.0     -0.4245000000   -0.4729000000   -3.1952000000 
C      6.0     -1.4757000000   -0.2012000000   -2.4089000000 
N      7.0     -1.4408000000   -0.2628000000   -1.0119000000 
C      6.0     -2.6667000000   -0.7337000000   -0.3232000000 
C      6.0      1.9652000000   -1.2421000000   -3.4972000000 
O      8.0      2.5049000000   -1.3701000000    3.5706000000 
H      1.0      1.3662000000    0.8343000000    4.5281000000 
H      1.0      1.5835000000   -1.8244000000    1.2093000000 
H      1.0     -0.3822000000    2.1185000000    3.3918000000 
H      1.0     -0.7468000000    2.1927000000    0.0023000000 
H      1.0     -2.2539000000    1.7370000000    0.8291000000 
H      1.0     -1.1947000000    2.9120000000    1.5409000000 
H      1.0      1.8336000000   -1.2989000000   -0.8040000000 
H      1.0     -0.4827000000   -0.3749000000   -4.2695000000 
H      1.0     -2.4310000000    0.1016000000   -2.8311000000 
H      1.0     -2.8210000000   -0.2482000000    0.6490000000 
H      1.0     -3.5588000000   -0.5442000000   -0.9357000000 
H      1.0     -2.5968000000   -1.8004000000   -0.1388000000 
H      1.0      1.7417000000   -2.0797000000   -4.1668000000 
H      1.0      2.8680000000   -1.5057000000   -2.9228000000 
H      1.0      2.2341000000   -0.3755000000   -4.1060000000 
H      1.0      2.6566000000   -0.9678000000    4.4380000000 
 $END


