 $CONTRL COORD=CART UNITS=ANGS $END

 $DATA
bpy.mol
C1
C      6.0     -3.0138000000    0.4827000000   -0.8032000000 
C      6.0     -2.6935000000   -0.6430000000    0.0561000000 
C      6.0     -1.5323000000   -1.2945000000   -0.1156000000 
C      6.0     -0.4883000000   -0.6749000000   -0.9649000000 
N      7.0     -1.0449000000   -0.0303000000   -2.0992000000 
C      6.0     -2.2244000000    0.6970000000   -1.8711000000 
C      6.0      0.7901000000   -0.6215000000   -0.4760000000 
C      6.0     -0.7928000000   -0.5542000000   -3.4409000000 
C      6.0      0.9696000000   -0.9387000000    0.9762000000 
C      6.0      2.1570000000   -0.9503000000    1.6036000000 
C      6.0      3.3582000000   -0.7818000000    0.8300000000 
C      6.0      3.2212000000   -0.3655000000   -0.4428000000 
N      7.0      1.9940000000   -0.1378000000   -1.0869000000 
C      6.0      2.0084000000    0.7031000000   -2.2862000000 
O      8.0      2.3440000000   -1.0871000000    2.9603000000 
C      6.0      1.4095000000   -0.3315000000    3.7473000000 
O      8.0     -3.5717000000   -0.8894000000    1.0838000000 
C      6.0     -2.9255000000   -0.7523000000    2.3567000000 
H      1.0     -3.8962000000    1.0623000000   -0.6045000000 
H      1.0     -1.2711000000   -2.1479000000    0.5001000000 
H      1.0     -2.4565000000    1.4473000000   -2.6291000000 
H      1.0      0.0746000000   -0.0677000000   -3.9000000000 
H      1.0     -0.5655000000   -1.6211000000   -3.3781000000 
H      1.0     -1.6692000000   -0.4746000000   -4.0929000000 
H      1.0      0.0992000000   -1.0862000000    1.5998000000 
H      1.0      4.3276000000   -0.9168000000    1.2973000000 
H      1.0      4.0953000000   -0.1584000000   -1.0574000000 
H      1.0      2.7955000000    1.4643000000   -2.2115000000 
H      1.0      2.1817000000    0.0897000000   -3.1747000000 
H      1.0      1.0945000000    1.2832000000   -2.4107000000 
H      1.0      0.3944000000   -0.7634000000    3.7178000000 
H      1.0      1.7434000000   -0.3651000000    4.7920000000 
H      1.0      1.3997000000    0.7141000000    3.4184000000 
H      1.0     -2.2247000000   -1.5738000000    2.5436000000 
H      1.0     -3.6867000000   -0.7754000000    3.1395000000 
H      1.0     -2.4011000000    0.2002000000    2.4233000000 
 $END


