 $CONTRL COORD=CART UNITS=ANGS $END

 $DATA
bpy.mol
C1
C      6.0      2.1103000000   -3.2957000000    0.5345000000 
C      6.0      0.8424000000   -3.1019000000    1.2629000000 
C      6.0      0.2831000000   -1.8794000000    1.3205000000 
C      6.0      0.6396000000   -0.9123000000    0.3042000000 
N      7.0      2.0928000000   -0.9051000000    0.1380000000 
C      6.0      2.7705000000   -2.1356000000    0.3969000000 
C      6.0     -0.2999000000   -0.0213000000   -0.1648000000 
C      6.0      2.8508000000    0.1274000000   -0.6421000000 
C      6.0     -0.1832000000    0.6347000000   -1.4984000000 
C      6.0     -0.8330000000    1.8044000000   -1.7023000000 
C      6.0     -1.4418000000    2.5488000000   -0.6044000000 
C      6.0     -1.7621000000    1.8066000000    0.4680000000 
N      7.0     -1.4640000000    0.4502000000    0.5948000000 
C      6.0     -2.6213000000   -0.3678000000    1.0669000000 
C      6.0     -1.2562000000    2.1239000000   -3.0867000000 
O      8.0     -1.4654000000    1.2878000000   -3.9576000000 
O      8.0      0.8666000000   -3.8981000000    2.3806000000 
H      1.0      2.7045000000   -4.1604000000    0.7971000000 
H      1.0     -0.1369000000   -1.5509000000    2.2594000000 
H      1.0      3.6751000000   -2.1126000000    1.0691000000 
H      1.0      2.2908000000    1.0379000000   -0.8000000000 
H      1.0      3.7983000000    0.3140000000   -0.1114000000 
H      1.0      3.1300000000   -0.2669000000   -1.6211000000 
H      1.0      0.2298000000    0.0511000000   -2.3197000000 
H      1.0     -1.8068000000    3.5590000000   -0.6953000000 
H      1.0     -2.3510000000    2.2315000000    1.2901000000 
H      1.0     -2.8271000000   -1.2678000000    0.4741000000 
H      1.0     -3.5765000000    0.2255000000    0.9817000000 
H      1.0     -2.4900000000   -0.5784000000    2.1424000000 
H      1.0     -1.4833000000    3.2024000000   -3.2382000000 
H      1.0      0.2783000000   -3.3813000000    2.9609000000 
 $END


