 $CONTRL SCFTYP=RHF RUNTYP=HESSIAN EXETYP=RUN
 MAXIT=200 ICHARG=0 MULT=1 ISPHER=1
 COORD=CART UNITS=ANGS $END
 $BASIS GBASIS=CCD $END
 $SYSTEM TIMLIM=1300 MWORDS=100 PARALL=.TRUE. $END
 $SCF DIRSCF=.TRUE. $END 
 $STATPT HESS=READ $END

 $DATA
bpy.mol
C1
C      6.0     -2.2495000000    1.7961000000    1.3061000000 
C      6.0     -1.1362000000    2.3097000000    0.5366000000 
C      6.0     -0.1805000000    1.4588000000    0.1081000000 
C      6.0     -0.2435000000    0.0127000000    0.4000000000 
N      7.0     -1.0481000000   -0.2758000000    1.5487000000 
C      6.0     -2.1267000000    0.5684000000    1.8387000000 
C      6.0      0.4111000000   -0.9006000000   -0.3899000000 
C      6.0     -0.5473000000   -1.1175000000    2.6471000000 
C      6.0      0.3011000000   -2.3443000000   -0.0669000000 
C      6.0      1.1615000000   -3.2383000000   -0.5889000000 
C      6.0      2.1972000000   -2.8399000000   -1.5107000000 
C      6.0      2.1621000000   -1.5804000000   -1.9648000000 
N      7.0      1.2115000000   -0.6403000000   -1.5529000000 
C      6.0      0.9013000000    0.4436000000   -2.5052000000 
N      7.0      1.0373000000   -4.6278000000   -0.1640000000 
O      8.0      2.0788000000   -5.3070000000   -0.1433000000 
O      8.0     -0.0886000000   -5.0488000000    0.1510000000 
C      6.0     -1.0034000000    3.7565000000    0.2183000000 
O      8.0     -0.1997000000    4.1958000000   -0.6013000000 
H      1.0     -3.1308000000    2.3997000000    1.4711000000 
H      1.0      0.6744000000    1.8456000000   -0.4362000000 
H      1.0     -2.9305000000    0.0833000000    2.3796000000 
H      1.0      0.4989000000   -1.4048000000    2.5044000000 
H      1.0     -1.1596000000   -2.0220000000    2.7434000000 
H      1.0     -0.5901000000   -0.5714000000    3.5985000000 
H      1.0     -0.5059000000   -2.6581000000    0.5919000000 
H      1.0      2.9249000000   -3.5557000000   -1.8659000000 
H      1.0      2.8705000000   -1.2315000000   -2.7162000000 
H      1.0      1.0548000000    0.1029000000   -3.5377000000 
H      1.0      1.5604000000    1.3029000000   -2.3410000000 
H      1.0     -0.1502000000    0.7561000000   -2.4491000000 
H      1.0     -1.6686000000    4.4393000000    0.7905000000 
 $END


