 $CONTRL SCFTYP=RHF RUNTYP=HESSIAN EXETYP=RUN
 MAXIT=200 ICHARG=0 MULT=1 ISPHER=1
 COORD=CART UNITS=ANGS $END
 $BASIS GBASIS=CCD $END
 $SYSTEM TIMLIM=1300 MWORDS=100 PARALL=.TRUE. $END
 $SCF DIRSCF=.TRUE. $END 
 $STATPT HESS=READ $END

 $DATA
bpy.mol
C1
C      6.0     -3.1538000000   -2.1317000000    0.7613000000 
C      6.0     -3.0362000000   -1.5555000000   -0.5526000000 
C      6.0     -1.9061000000   -0.9358000000   -0.9348000000 
C      6.0     -0.7458000000   -0.7810000000   -0.0221000000 
N      7.0     -0.8430000000   -1.5677000000    1.1743000000 
C      6.0     -2.0680000000   -2.1310000000    1.5431000000 
C      6.0      0.2988000000    0.0637000000   -0.3221000000 
C      6.0      0.3610000000   -2.1626000000    1.7858000000 
C      6.0      0.5505000000    0.5273000000   -1.7120000000 
C      6.0      1.7001000000    1.1359000000   -2.0656000000 
C      6.0      2.7251000000    1.3916000000   -1.0813000000 
C      6.0      2.4504000000    1.1179000000    0.1986000000 
N      7.0      1.2463000000    0.5587000000    0.6338000000 
C      6.0      0.8190000000    0.9176000000    2.0000000000 
C      6.0      1.8989000000    1.5276000000   -3.4856000000 
O      8.0      2.9152000000    2.0785000000   -3.8941000000 
Cl    17.0     -4.3901000000   -1.6706000000   -1.6140000000 
H      1.0     -4.0833000000   -2.5893000000    1.0761000000 
H      1.0     -1.8919000000   -0.4914000000   -1.9190000000 
H      1.0     -2.0739000000   -2.6097000000    2.5183000000 
H      1.0      0.2724000000   -3.2559000000    1.8035000000 
H      1.0      1.2816000000   -1.9438000000    1.2374000000 
H      1.0      0.4681000000   -1.8193000000    2.8198000000 
H      1.0     -0.1785000000    0.3192000000   -2.4816000000 
H      1.0      3.6646000000    1.8393000000   -1.3860000000 
H      1.0      3.1564000000    1.3545000000    0.9897000000 
H      1.0     -0.2380000000    0.7147000000    2.1944000000 
H      1.0      1.4268000000    0.3832000000    2.7374000000 
H      1.0      0.9577000000    1.9934000000    2.1657000000 
H      1.0      1.0654000000    1.2922000000   -4.1685000000 
 $END


