 $CONTRL SCFTYP=RHF RUNTYP=HESSIAN EXETYP=RUN
 MAXIT=200 ICHARG=0 MULT=1 ISPHER=1
 COORD=CART UNITS=ANGS $END
 $BASIS GBASIS=CCD $END
 $SYSTEM TIMLIM=1300 MWORDS=100 PARALL=.TRUE. $END
 $SCF DIRSCF=.TRUE. $END 
 $STATPT HESS=READ $END

 $DATA
bpy.mol
C1
C      6.0     -0.1499000000   -0.9818000000   -3.4278000000 
C      6.0     -0.5935000000   -2.0271000000   -2.3628000000 
C      6.0     -1.1788000000   -1.3767000000   -1.3333000000 
C      6.0     -0.1492000000   -0.8336000000   -0.5040000000 
N      7.0      0.6664000000    0.2933000000   -1.5714000000 
C      6.0      0.6810000000    0.0023000000   -3.0140000000 
C      6.0     -0.0773000000   -0.0459000000    0.7125000000 
C      6.0      0.9074000000    1.6979000000   -1.0710000000 
C      6.0     -1.4892000000    0.7720000000    1.6171000000 
C      6.0     -1.9024000000   -0.5643000000    1.8810000000 
C      6.0     -0.7564000000   -1.4786000000    2.6871000000 
C      6.0      0.6102000000   -1.3341000000    2.2701000000 
N      7.0      1.2040000000   -0.1339000000    1.5355000000 
C      6.0      1.2419000000    1.1076000000    2.8336000000 
O      8.0     -3.2879000000   -1.0783000000    1.7649000000 
C      6.0      0.5940000000   -3.1284000000   -2.2516000000 
O      8.0      0.2969000000   -4.0128000000   -1.4261000000 
H      1.0     -1.0731000000   -0.6123000000   -4.0463000000 
H      1.0     -1.6380000000   -0.4596000000   -1.7005000000 
H      1.0      1.5264000000    0.6384000000   -3.7247000000 
H      1.0      1.1825000000    2.4337000000   -1.8904000000 
H      1.0     -0.0245000000    2.2461000000   -0.7361000000 
H      1.0      1.8477000000    1.7182000000   -0.5071000000 
H      1.0     -2.9023000000    1.2890000000    1.5590000000 
H      1.0     -0.9361000000   -0.9233000000    3.6304000000 
H      1.0      1.0200000000   -2.2689000000    1.8473000000 
H      1.0      2.3769000000    1.3395000000    2.5545000000 
H      1.0      0.2953000000    1.6156000000    2.4554000000 
H      1.0      1.2013000000    0.5602000000    3.7830000000 
H      1.0     -3.9500000000   -0.2569000000    1.4457000000 
H      1.0      1.8920000000   -2.6274000000   -3.0098000000 
 $END


