 $CONTRL COORD=CART UNITS=ANGS $END

 $DATA
bpy.mol
C1
C      6.0     -2.5577000000   -0.5470000000   -1.9087000000 
C      6.0     -1.3581000000    0.1838000000   -2.2626000000 
C      6.0     -0.3355000000    0.1678000000   -1.3819000000 
C      6.0     -0.3836000000   -0.5007000000   -0.0543000000 
N      7.0     -1.6452000000   -1.1005000000    0.2592000000 
C      6.0     -2.6454000000   -1.1376000000   -0.7122000000 
C      6.0      0.7700000000   -0.5533000000    0.6913000000 
C      6.0     -2.0687000000   -1.3705000000    1.6441000000 
C      6.0      0.9673000000   -1.7002000000    1.6094000000 
C      6.0      2.1192000000   -1.9152000000    2.2658000000 
C      6.0      3.2370000000   -1.0174000000    2.0976000000 
C      6.0      3.0718000000    0.0418000000    1.2983000000 
N      7.0      1.8841000000    0.3484000000    0.6238000000 
C      6.0      1.6834000000    1.7798000000    0.3141000000 
C      6.0      2.1900000000   -3.1131000000    3.1279000000 
O      8.0      3.2604000000   -3.8877000000    2.8476000000 
O      8.0      1.3617000000   -3.3878000000    3.9809000000 
N      7.0     -1.2808000000    0.7947000000   -3.5084000000 
C      6.0     -2.3486000000    1.5849000000   -4.0944000000 
H      1.0     -3.3628000000   -0.6391000000   -2.6246000000 
H      1.0      0.6059000000    0.6065000000   -1.6871000000 
H      1.0     -3.5423000000   -1.6797000000   -0.4249000000 
H      1.0     -1.4466000000   -0.8503000000    2.3823000000 
H      1.0     -2.0481000000   -2.4478000000    1.8425000000 
H      1.0     -3.0950000000   -1.0212000000    1.8139000000 
H      1.0      0.1851000000   -2.4449000000    1.6870000000 
H      1.0      4.1599000000   -1.1787000000    2.6418000000 
H      1.0      3.8638000000    0.7766000000    1.1740000000 
H      1.0      0.6381000000    2.0434000000    0.1367000000 
H      1.0      2.0070000000    2.3973000000    1.1608000000 
H      1.0      2.2801000000    2.0625000000   -0.5626000000 
H      1.0      3.7388000000   -3.5964000000    2.0473000000 
H      1.0     -0.3738000000    1.2264000000   -3.6595000000 
H      1.0     -3.3428000000    1.3122000000   -3.7208000000 
H      1.0     -2.3480000000    1.4753000000   -5.1860000000 
H      1.0     -2.1904000000    2.6421000000   -3.8582000000 
 $END


