 $CONTRL SCFTYP=RHF RUNTYP=HESSIAN EXETYP=RUN
 MAXIT=200 ICHARG=0 MULT=1 ISPHER=1
 COORD=CART UNITS=ANGS $END
 $BASIS GBASIS=CCD $END
 $SYSTEM TIMLIM=1300 MWORDS=100 PARALL=.TRUE. $END
 $SCF DIRSCF=.TRUE. $END 
 $STATPT HESS=READ $END

 $DATA
bpy.mol
C1
C      6.0     -1.8746000000    0.3105000000   -2.6539000000 
C      6.0     -2.4388000000    0.4878000000   -1.3330000000 
C      6.0     -1.6564000000    0.3225000000   -0.2523000000 
C      6.0     -0.2201000000   -0.1005000000   -0.3197000000 
N      7.0      0.1887000000   -0.4731000000   -1.6382000000 
C      6.0     -0.6330000000   -0.1693000000   -2.7327000000 
C      6.0      0.4730000000   -0.2775000000    0.8636000000 
C      6.0      1.3084000000   -1.3765000000   -1.8845000000 
C      6.0     -0.0691000000    0.3763000000    2.1133000000 
C      6.0      0.3549000000   -0.0432000000    3.3115000000 
C      6.0      1.4141000000   -1.0541000000    3.4143000000 
C      6.0      2.1193000000   -1.2976000000    2.2967000000 
N      7.0      1.8198000000   -0.7234000000    1.0470000000 
C      6.0      2.8693000000    0.2020000000    0.5166000000 
Cl    17.0     -0.3003000000    0.6356000000    4.7558000000 
C      6.0     -3.9052000000    0.7943000000   -1.2452000000 
H      1.0     -2.4692000000    0.5030000000   -3.5292000000 
H      1.0     -2.1399000000    0.4012000000    0.7158000000 
H      1.0     -0.2074000000   -0.3740000000   -3.7170000000 
H      1.0      1.4991000000   -1.4946000000   -2.9641000000 
H      1.0      1.1294000000   -2.3768000000   -1.4727000000 
H      1.0      2.2503000000   -1.0085000000   -1.4800000000 
H      1.0     -0.7503000000    1.1901000000    2.0297000000 
H      1.0      1.7050000000   -1.4526000000    4.3698000000 
H      1.0      2.9800000000   -1.9086000000    2.3137000000 
H      1.0      3.6588000000   -0.3779000000   -0.0052000000 
H      1.0      3.3249000000    0.7602000000    1.3355000000 
H      1.0      2.4524000000    0.9453000000   -0.1795000000 
H      1.0     -4.1933000000    1.6156000000   -1.8976000000 
H      1.0     -4.4805000000   -0.0943000000   -1.5506000000 
H      1.0     -4.2093000000    1.0569000000   -0.2279000000 
 $END


