 $CONTRL SCFTYP=RHF RUNTYP=HESSIAN EXETYP=RUN
 MAXIT=200 ICHARG=0 MULT=1 ISPHER=1
 COORD=CART UNITS=ANGS $END
 $BASIS GBASIS=CCD $END
 $SYSTEM TIMLIM=1300 MWORDS=100 PARALL=.TRUE. $END
 $SCF DIRSCF=.TRUE. $END 
 $STATPT HESS=READ $END

 $DATA
bpy.mol
C1
C      6.0     -2.5554000000    0.8461000000   -2.0286000000 
C      6.0     -2.2879000000    1.4780000000   -0.7626000000 
C      6.0     -1.2628000000    1.0739000000    0.0018000000 
C      6.0     -0.3632000000   -0.0359000000   -0.3939000000 
N      7.0     -0.5851000000   -0.5287000000   -1.7228000000 
C      6.0     -1.7068000000   -0.1032000000   -2.4434000000 
C      6.0      0.4949000000   -0.5544000000    0.5455000000 
C      6.0      0.5025000000   -1.1433000000   -2.5053000000 
C      6.0      0.8661000000   -1.9873000000    0.4404000000 
C      6.0      1.5167000000   -2.6381000000    1.4176000000 
C      6.0      1.8905000000   -1.9563000000    2.6283000000 
C      6.0      1.6253000000   -0.6477000000    2.7197000000 
N      7.0      1.0029000000    0.1012000000    1.7148000000 
C      6.0      1.2337000000    1.5575000000    1.7470000000 
Cl    17.0      1.8772000000   -4.3183000000    1.2829000000 
O      8.0     -3.1485000000    2.4654000000   -0.3425000000 
H      1.0     -3.4023000000    1.1398000000   -2.6356000000 
H      1.0     -1.1721000000    1.5124000000    0.9857000000 
H      1.0     -1.8364000000   -0.5881000000   -3.4066000000 
H      1.0      1.4805000000   -1.0397000000   -2.0246000000 
H      1.0      0.2920000000   -2.2043000000   -2.6747000000 
H      1.0      0.5953000000   -0.6572000000   -3.4839000000 
H      1.0      0.5147000000   -2.5571000000   -0.4097000000 
H      1.0      2.3834000000   -2.4947000000    3.4278000000 
H      1.0      1.9157000000   -0.0790000000    3.5989000000 
H      1.0      0.5310000000    2.0311000000    2.4403000000 
H      1.0      1.1459000000    2.0243000000    0.7621000000 
H      1.0      2.2490000000    1.7786000000    2.0974000000 
H      1.0     -3.8821000000    2.5240000000   -0.9759000000 
 $END


