 $CONTRL SCFTYP=RHF RUNTYP=HESSIAN EXETYP=RUN
 MAXIT=200 ICHARG=0 MULT=1 ISPHER=1
 COORD=CART UNITS=ANGS $END
 $BASIS GBASIS=CCD $END
 $SYSTEM TIMLIM=1300 MWORDS=100 PARALL=.TRUE. $END
 $SCF DIRSCF=.TRUE. $END 
 $STATPT HESS=READ $END

 $DATA
bpy.mol
C1
C      6.0     -3.3147000000    0.6697000000    0.3228000000 
C      6.0     -2.2326000000    1.5877000000    0.0493000000 
C      6.0     -0.9534000000    1.1673000000    0.0266000000 
C      6.0     -0.6098000000   -0.2604000000    0.2120000000 
N      7.0     -1.6546000000   -0.9959000000    0.8641000000 
C      6.0     -2.9782000000   -0.5529000000    0.7527000000 
C      6.0      0.6132000000   -0.7307000000   -0.2089000000 
C      6.0     -1.3891000000   -2.0170000000    1.8938000000 
C      6.0      0.9514000000   -2.1603000000   -0.0255000000 
C      6.0      2.2279000000   -2.5876000000   -0.0547000000 
C      6.0      3.3133000000   -1.6756000000   -0.3326000000 
C      6.0      2.9815000000   -0.4500000000   -0.7572000000 
N      7.0      1.6602000000    0.0020000000   -0.8606000000 
C      6.0      1.3981000000    1.0336000000   -1.8804000000 
N      7.0      2.4823000000   -4.0110000000    0.1705000000 
O      8.0      3.6326000000   -4.4219000000   -0.0386000000 
O      8.0      1.5463000000   -4.7226000000    0.5665000000 
N      7.0     -2.4942000000    3.0096000000   -0.1786000000 
O      8.0     -3.6527000000    3.4102000000    0.0052000000 
O      8.0     -1.5559000000    3.7304000000   -0.5512000000 
H      1.0     -4.3478000000    0.9904000000    0.2570000000 
H      1.0     -0.1405000000    1.8696000000   -0.0994000000 
H      1.0     -3.7299000000   -1.2709000000    1.0712000000 
H      1.0     -2.0578000000   -1.8809000000    2.7527000000 
H      1.0     -0.3717000000   -1.9491000000    2.2918000000 
H      1.0     -1.5680000000   -3.0202000000    1.4936000000 
H      1.0      0.1352000000   -2.8593000000    0.1011000000 
H      1.0      4.3447000000   -2.0030000000   -0.2747000000 
H      1.0      3.7362000000    0.2637000000   -1.0782000000 
H      1.0      0.3831000000    0.9674000000   -2.2848000000 
H      1.0      1.5724000000    2.0325000000   -1.4683000000 
H      1.0      2.0726000000    0.9087000000   -2.7370000000 
 $END


