 $CONTRL SCFTYP=RHF RUNTYP=HESSIAN EXETYP=RUN
 MAXIT=200 ICHARG=0 MULT=1 ISPHER=1
 COORD=CART UNITS=ANGS $END
 $BASIS GBASIS=CCD $END
 $SYSTEM TIMLIM=1300 MWORDS=100 PARALL=.TRUE. $END
 $SCF DIRSCF=.TRUE. $END 
 $STATPT HESS=READ $END

 $DATA
bpy.mol
C1
C      6.0     -3.7679000000    0.8210000000    0.1881000000 
C      6.0     -3.2494000000   -0.0419000000    1.2205000000 
C      6.0     -1.9514000000   -0.3844000000    1.2392000000 
C      6.0     -1.0201000000    0.0367000000    0.1686000000 
N      7.0     -1.5516000000    0.9858000000   -0.7654000000 
C      6.0     -2.9102000000    1.2968000000   -0.7245000000 
C      6.0      0.2286000000   -0.5173000000    0.0764000000 
C      6.0     -0.6700000000    2.0467000000   -1.2993000000 
C      6.0      0.9578000000   -0.9403000000    1.2927000000 
C      6.0      2.2811000000   -1.1894000000    1.2844000000 
C      6.0      3.0093000000   -1.1172000000    0.0276000000 
C      6.0      2.3333000000   -0.8730000000   -1.1037000000 
N      7.0      0.9599000000   -0.6345000000   -1.1489000000 
C      6.0      0.2263000000   -0.9575000000   -2.3797000000 
C      6.0      3.0839000000   -1.4080000000    2.5352000000 
Cl    17.0     -4.3570000000   -0.6451000000    2.3980000000 
H      1.0     -4.8186000000    1.0970000000    0.1790000000 
H      1.0     -1.6042000000   -1.0796000000    1.9884000000 
H      1.0     -3.2297000000    1.9865000000   -1.4968000000 
H      1.0      0.3712000000    1.7422000000   -1.4306000000 
H      1.0     -0.6749000000    2.9114000000   -0.6230000000 
H      1.0     -1.0143000000    2.3676000000   -2.2846000000 
H      1.0      0.4608000000   -0.8978000000    2.2588000000 
H      1.0      4.0904000000   -1.2287000000    0.0260000000 
H      1.0      2.8352000000   -0.8293000000   -2.0645000000 
H      1.0     -0.5954000000   -1.6556000000   -2.1715000000 
H      1.0     -0.1949000000   -0.0705000000   -2.8551000000 
H      1.0      0.8592000000   -1.4558000000   -3.1232000000 
H      1.0      3.6207000000   -2.3639000000    2.5036000000 
H      1.0      2.4623000000   -1.3926000000    3.4332000000 
H      1.0      3.8295000000   -0.6104000000    2.6509000000 
 $END


