 $CONTRL SCFTYP=RHF RUNTYP=HESSIAN EXETYP=RUN
 MAXIT=200 ICHARG=0 MULT=1 ISPHER=1
 COORD=CART UNITS=ANGS $END
 $BASIS GBASIS=CCD $END
 $SYSTEM TIMLIM=1300 MWORDS=100 PARALL=.TRUE. $END
 $SCF DIRSCF=.TRUE. $END 
 $STATPT HESS=READ $END

 $DATA
bpy.mol
C1
C      6.0     -2.2001000000    1.2959000000    0.3598000000 
C      6.0     -0.9731000000    2.0383000000    0.0373000000 
C      6.0      0.2149000000    1.3833000000    0.1663000000 
C      6.0      0.3029000000   -0.0365000000    0.6533000000 
N      7.0     -0.8726000000   -0.3911000000    1.4195000000 
C      6.0     -2.0958000000    0.1602000000    1.0570000000 
C      6.0      0.7665000000   -0.9368000000   -0.2647000000 
C      6.0     -0.8306000000   -1.5468000000    2.3154000000 
C      6.0     -0.2785000000   -1.6230000000   -1.0496000000 
C      6.0     -0.2654000000   -2.9595000000   -1.2384000000 
C      6.0      0.9303000000   -3.6844000000   -0.8343000000 
C      6.0      2.0033000000   -2.9900000000   -0.3899000000 
N      7.0      2.0199000000   -1.6110000000   -0.1664000000 
C      6.0      3.2481000000   -0.9282000000    0.2718000000 
C      6.0     -1.3868000000   -3.6106000000   -1.9660000000 
O      8.0     -1.3796000000   -4.8151000000   -2.2204000000 
N      7.0     -1.1863000000    3.3329000000   -0.3959000000 
C      6.0     -0.1946000000    4.3741000000   -0.5674000000 
H      1.0     -3.1317000000    1.6511000000   -0.0407000000 
H      1.0      1.1573000000    1.8523000000   -0.1073000000 
H      1.0     -2.9469000000   -0.4721000000    1.2928000000 
H      1.0      0.1877000000   -1.8661000000    2.5521000000 
H      1.0     -1.3780000000   -2.3919000000    1.8899000000 
H      1.0     -1.3057000000   -1.2897000000    3.2655000000 
H      1.0     -1.0601000000   -0.9447000000   -1.4425000000 
H      1.0      0.9471000000   -4.7614000000   -0.9402000000 
H      1.0      2.9382000000   -3.4932000000   -0.1617000000 
H      1.0      4.0205000000   -1.6567000000    0.5684000000 
H      1.0      3.0747000000   -0.2772000000    1.1283000000 
H      1.0      3.6273000000   -0.2828000000   -0.5391000000 
H      1.0     -2.2174000000   -2.9410000000   -2.2766000000 
H      1.0     -2.1617000000    3.5731000000   -0.5549000000 
H      1.0      0.2950000000    4.6064000000    0.3887000000 
H      1.0     -0.6681000000    5.3093000000   -0.9057000000 
H      1.0      0.5619000000    4.0735000000   -1.3044000000 
 $END


