 $CONTRL COORD=CART UNITS=ANGS $END

 $DATA
bpy.mol
C1
C      6.0     -0.9573000000    1.1623000000    3.1054000000 
C      6.0     -1.8765000000    0.5770000000    2.1494000000 
C      6.0     -1.5704000000    0.5394000000    0.8479000000 
C      6.0     -0.2369000000    0.9581000000    0.3460000000 
N      7.0      0.5948000000    1.5945000000    1.3032000000 
C      6.0      0.1884000000    1.6817000000    2.6372000000 
C      6.0      0.2857000000    0.1099000000   -0.5855000000 
C      6.0      1.7674000000    2.3530000000    0.8424000000 
C      6.0      0.6532000000   -1.2323000000   -0.1103000000 
C      6.0      0.8261000000   -2.2726000000   -0.9415000000 
C      6.0      0.8257000000   -2.0127000000   -2.3676000000 
C      6.0      0.6409000000   -0.7570000000   -2.8094000000 
N      7.0      0.3014000000    0.3128000000   -1.9807000000 
C      6.0      0.0411000000    1.6345000000   -2.5508000000 
N      7.0      1.0565000000   -3.5732000000   -0.5089000000 
C      6.0     -0.0629000000   -4.5150000000   -0.4104000000 
O      8.0     -3.0542000000    0.0628000000    2.6206000000 
H      1.0     -1.2614000000    1.3602000000    4.1257000000 
H      1.0     -2.2769000000    0.1179000000    0.1330000000 
H      1.0      0.8912000000    2.1975000000    3.2911000000 
H      1.0      2.4909000000    2.5134000000    1.6520000000 
H      1.0      2.2919000000    1.8425000000    0.0195000000 
H      1.0      1.4510000000    3.3382000000    0.4750000000 
H      1.0      0.7217000000   -1.3521000000    0.9675000000 
H      1.0      0.9958000000   -2.8473000000   -3.0413000000 
H      1.0      0.7334000000   -0.5197000000   -3.8603000000 
H      1.0     -0.8762000000    2.0735000000   -2.1403000000 
H      1.0      0.8973000000    2.2998000000   -2.3829000000 
H      1.0     -0.0918000000    1.5599000000   -3.6307000000 
H      1.0      1.5767000000   -3.5549000000    0.3555000000 
H      1.0     -0.9808000000   -4.0176000000   -0.0747000000 
H      1.0     -0.2425000000   -4.9890000000   -1.3748000000 
H      1.0      0.1730000000   -5.2890000000    0.3191000000 
H      1.0     -3.1143000000    0.2134000000    3.5798000000 
 $END


