 $CONTRL SCFTYP=RHF RUNTYP=HESSIAN EXETYP=RUN
 MAXIT=200 ICHARG=0 MULT=1 ISPHER=1
 COORD=CART UNITS=ANGS $END
 $BASIS GBASIS=CCD $END
 $SYSTEM TIMLIM=1300 MWORDS=100 PARALL=.TRUE. $END
 $SCF DIRSCF=.TRUE. $END 
 $STATPT HESS=READ $END

 $DATA
bpy.mol
C1
C      6.0      1.1454000000   -3.6280000000   -0.9054000000 
C      6.0      0.0635000000   -3.4906000000    0.0740000000 
C      6.0     -0.3029000000   -2.2607000000    0.5290000000 
C      6.0      0.2636000000   -1.0501000000   -0.1381000000 
N      7.0      0.8131000000   -1.2826000000   -1.4225000000 
C      6.0      1.4887000000   -2.5211000000   -1.5949000000 
C      6.0     -0.0781000000    0.1816000000    0.3391000000 
C      6.0      0.0479000000   -0.8580000000   -2.5974000000 
C      6.0     -0.0412000000    0.4858000000    1.7941000000 
C      6.0     -0.6449000000    1.6090000000    2.2334000000 
C      6.0     -1.5531000000    2.3557000000    1.3541000000 
C      6.0     -1.3040000000    2.2085000000    0.0414000000 
N      7.0     -0.2679000000    1.3630000000   -0.4484000000 
C      6.0      0.9230000000    2.0212000000   -0.9847000000 
C      6.0     -0.0569000000    2.2095000000    3.4551000000 
O      8.0     -0.6661000000    2.3864000000    4.4981000000 
C      6.0     -0.7473000000   -4.6990000000    0.4485000000 
O      8.0     -0.5045000000   -5.8273000000    0.0128000000 
H      1.0      1.5741000000   -4.6216000000   -1.1202000000 
H      1.0     -1.2062000000   -2.0453000000    1.1051000000 
H      1.0      2.1140000000   -2.5039000000   -2.4785000000 
H      1.0     -0.7500000000   -1.5997000000   -2.7640000000 
H      1.0      0.6785000000   -0.8118000000   -3.4860000000 
H      1.0     -0.5404000000    0.0824000000   -2.5568000000 
H      1.0      0.6729000000   -0.0449000000    2.4394000000 
H      1.0     -2.3439000000    2.9896000000    1.7868000000 
H      1.0     -1.8691000000    2.7092000000   -0.7468000000 
H      1.0      1.4301000000    2.5872000000   -0.1929000000 
H      1.0      1.6436000000    1.3831000000   -1.5253000000 
H      1.0      0.5990000000    2.8616000000   -1.6140000000 
H      1.0      1.0208000000    2.5069000000    3.3398000000 
H      1.0     -1.6017000000   -4.5553000000    1.1250000000 
 $END


