 $CONTRL COORD=CART UNITS=ANGS $END

 $DATA
bpy.mol
C1
C      6.0     -2.7788000000    1.5888000000    0.1001000000 
C      6.0     -2.3045000000    1.0070000000   -1.1340000000 
C      6.0     -1.1692000000    0.2784000000   -1.1261000000 
C      6.0     -0.3672000000    0.0200000000    0.1032000000 
N      7.0     -0.8008000000    0.7884000000    1.2426000000 
C      6.0     -2.0130000000    1.4799000000    1.1915000000 
C      6.0      0.7180000000   -0.8297000000    0.0328000000 
C      6.0     -0.0383000000    0.9108000000    2.4828000000 
C      6.0      1.1453000000   -1.4836000000   -1.2384000000 
C      6.0      2.4421000000   -1.8101000000   -1.4190000000 
C      6.0      3.4288000000   -1.5562000000   -0.3866000000 
C      6.0      2.9627000000   -1.2796000000    0.8385000000 
N      7.0      1.6009000000   -1.1380000000    1.1113000000 
C      6.0      1.0904000000   -1.9312000000    2.2501000000 
N      7.0      2.8248000000   -2.4526000000   -2.6693000000 
O      8.0      1.9376000000   -2.9397000000   -3.3913000000 
O      8.0      4.0388000000   -2.4905000000   -2.9298000000 
C      6.0     -3.0903000000    1.3088000000   -2.3699000000 
H      1.0     -3.7110000000    2.1350000000    0.1116000000 
H      1.0     -0.7985000000   -0.0573000000   -2.0923000000 
H      1.0     -2.3279000000    1.9366000000    2.1253000000 
H      1.0     -0.3464000000    0.1252000000    3.1766000000 
H      1.0      1.0384000000    0.8966000000    2.3209000000 
H      1.0     -0.2451000000    1.8563000000    2.9925000000 
H      1.0      0.3950000000   -1.7201000000   -1.9875000000 
H      1.0      4.4865000000   -1.6466000000   -0.6082000000 
H      1.0      3.6112000000   -1.1720000000    1.7047000000 
H      1.0      1.4952000000   -1.5458000000    3.1956000000 
H      1.0      1.4062000000   -2.9782000000    2.1359000000 
H      1.0     -0.0042000000   -1.9255000000    2.2952000000 
H      1.0     -3.1504000000    2.3956000000   -2.5281000000 
H      1.0     -4.1041000000    0.9050000000   -2.2681000000 
H      1.0     -2.6356000000    0.8606000000   -3.2626000000 
 $END


