 $CONTRL COORD=CART UNITS=ANGS $END

 $DATA
bpy.mol
C1
C      6.0     -2.0556000000   -0.1962000000    2.6362000000 
C      6.0     -2.5172000000    0.1691000000    1.3209000000 
C      6.0     -1.6918000000    0.0002000000    0.2679000000 
C      6.0     -0.3181000000   -0.5414000000    0.4078000000 
N      7.0      0.1174000000   -0.8102000000    1.7506000000 
C      6.0     -0.8051000000   -0.6472000000    2.7848000000 
C      6.0      0.4177000000   -0.6568000000   -0.7401000000 
C      6.0      1.5215000000   -0.5419000000    2.1486000000 
C      6.0      1.7736000000   -1.1992000000   -0.7413000000 
C      6.0      2.7454000000   -0.3742000000   -1.1683000000 
C      6.0      2.4012000000    0.9016000000   -1.7950000000 
C      6.0      1.1157000000    1.0756000000   -2.1827000000 
N      7.0      0.1248000000    0.0802000000   -1.9374000000 
C      6.0     -0.1871000000   -0.7636000000   -3.1108000000 
O      8.0      4.0718000000   -0.7205000000   -1.0561000000 
C      6.0     -3.9340000000    0.6258000000    1.1417000000 
H      1.0     -2.6978000000   -0.0661000000    3.4967000000 
H      1.0     -2.0448000000    0.2348000000   -0.7355000000 
H      1.0     -0.4229000000   -0.8825000000    3.7750000000 
H      1.0      1.7051000000    0.5435000000    2.1160000000 
H      1.0      1.7438000000   -0.8978000000    3.1690000000 
H      1.0      2.2710000000   -1.0402000000    1.5306000000 
H      1.0      1.9642000000   -2.1895000000   -0.3298000000 
H      1.0      3.1598000000    1.6261000000   -2.0410000000 
H      1.0      0.7703000000    1.9412000000   -2.7577000000 
H      1.0     -0.9528000000   -1.5118000000   -2.8700000000 
H      1.0      0.7098000000   -1.2933000000   -3.4540000000 
H      1.0     -0.5483000000   -0.1552000000   -3.9463000000 
H      1.0      4.5979000000    0.0857000000   -0.9097000000 
H      1.0     -4.5607000000    0.4328000000    2.0220000000 
H      1.0     -4.4010000000    0.0812000000    0.3061000000 
H      1.0     -3.9884000000    1.6887000000    0.9018000000 
 $END


