 $CONTRL SCFTYP=RHF RUNTYP=HESSIAN EXETYP=RUN
 MAXIT=200 ICHARG=0 MULT=1 ISPHER=1
 COORD=CART UNITS=ANGS $END
 $BASIS GBASIS=CCD $END
 $SYSTEM TIMLIM=1300 MWORDS=100 PARALL=.TRUE. $END
 $SCF DIRSCF=.TRUE. $END 
 $STATPT HESS=READ $END

 $DATA
bpy.mol
C1
C      6.0     -0.4213000000   -1.0440000000    2.9997000000 
C      6.0     -0.8117000000   -1.8710000000    1.8806000000 
C      6.0     -0.2907000000   -1.6207000000    0.6570000000 
C      6.0      0.5175000000   -0.3918000000    0.3705000000 
N      7.0      1.0053000000    0.3190000000    1.5466000000 
C      6.0      0.4332000000   -0.0319000000    2.7882000000 
C      6.0      0.4170000000    0.1173000000   -0.9126000000 
C      6.0      2.2501000000    1.1032000000    1.5830000000 
C      6.0      1.5943000000    0.7425000000   -1.5305000000 
C      6.0      1.7519000000    0.7414000000   -2.8716000000 
C      6.0      0.7156000000    0.2631000000   -3.7597000000 
C      6.0     -0.4581000000   -0.0725000000   -3.2005000000 
N      7.0     -0.6622000000   -0.1577000000   -1.8074000000 
C      6.0     -2.0426000000    0.0804000000   -1.3342000000 
O      8.0      2.9205000000    1.0786000000   -3.4854000000 
O      8.0     -1.7057000000   -2.8910000000    2.1575000000 
C      6.0     -3.0465000000   -2.3553000000    2.1699000000 
H      1.0     -0.7760000000   -1.2983000000    3.9899000000 
H      1.0     -0.6928000000   -2.1615000000   -0.2073000000 
H      1.0      0.7504000000    0.5650000000    3.6372000000 
H      1.0      3.0903000000    0.5236000000    1.1983000000 
H      1.0      2.5157000000    1.4089000000    2.5988000000 
H      1.0      2.1703000000    2.0365000000    1.0076000000 
H      1.0      2.4428000000    0.9740000000   -0.9110000000 
H      1.0      0.8952000000    0.2972000000   -4.8206000000 
H      1.0     -1.3270000000   -0.3377000000   -3.8162000000 
H      1.0     -2.8071000000   -0.4316000000   -1.9296000000 
H      1.0     -2.1734000000    1.1769000000   -1.3476000000 
H      1.0     -2.2078000000   -0.2360000000   -0.2841000000 
H      1.0      3.3591000000    1.7247000000   -2.9063000000 
H      1.0     -3.5506000000   -2.7851000000    3.0405000000 
H      1.0     -3.5694000000   -2.6414000000    1.2531000000 
H      1.0     -3.0885000000   -1.2551000000    2.2461000000 
 $END


