 $CONTRL COORD=CART UNITS=ANGS $END

 $DATA
bpy.mol
C1
C      6.0     -3.5384000000   -1.4088000000   -1.0886000000 
C      6.0     -2.6377000000   -2.4298000000   -0.6157000000 
C      6.0     -1.3990000000   -2.1226000000   -0.1868000000 
C      6.0     -0.8812000000   -0.7321000000   -0.2255000000 
N      7.0     -1.8670000000    0.2568000000   -0.5566000000 
C      6.0     -3.1244000000   -0.1368000000   -1.0343000000 
C      6.0      0.4438000000   -0.4576000000    0.0237000000 
C      6.0     -1.7373000000    1.6471000000   -0.0763000000 
C      6.0      1.2746000000   -1.3660000000    0.8500000000 
C      6.0      2.4910000000   -1.0043000000    1.3152000000 
C      6.0      3.0365000000    0.2938000000    0.9907000000 
C      6.0      2.3550000000    1.0710000000    0.1397000000 
N      7.0      1.1255000000    0.7187000000   -0.4272000000 
C      6.0      0.9072000000    1.1875000000   -1.8140000000 
C      6.0      3.1934000000   -1.9585000000    2.2013000000 
O      8.0      4.5223000000   -1.7300000000    2.2577000000 
O      8.0      2.6835000000   -2.8867000000    2.8178000000 
Cl    17.0     -3.1730000000   -4.0702000000   -0.6602000000 
H      1.0     -4.5263000000   -1.6669000000   -1.4498000000 
H      1.0     -0.7382000000   -2.9402000000    0.0807000000 
H      1.0     -3.7803000000    0.6757000000   -1.3362000000 
H      1.0     -1.4064000000    2.2945000000   -0.8893000000 
H      1.0     -2.6997000000    2.0273000000    0.2871000000 
H      1.0     -1.0429000000    1.7364000000    0.7618000000 
H      1.0      0.8607000000   -2.3160000000    1.1688000000 
H      1.0      3.9927000000    0.5952000000    1.3997000000 
H      1.0      2.7449000000    2.0308000000   -0.1926000000 
H      1.0      1.7037000000    0.7957000000   -2.4623000000 
H      1.0      0.9329000000    2.2816000000   -1.8523000000 
H      1.0     -0.0391000000    0.8575000000   -2.2513000000 
H      1.0      4.8608000000   -2.4596000000    2.8248000000 
 $END


