 $CONTRL SCFTYP=RHF RUNTYP=HESSIAN EXETYP=RUN
 MAXIT=200 ICHARG=0 MULT=1 ISPHER=1
 COORD=CART UNITS=ANGS $END
 $BASIS GBASIS=CCD $END
 $SYSTEM TIMLIM=1300 MWORDS=100 PARALL=.TRUE. $END
 $SCF DIRSCF=.TRUE. $END 
 $STATPT HESS=READ $END

 $DATA
bpy.mol
C1
C      6.0     -3.0830000000   -2.3093000000    2.1384000000 
C      6.0     -1.7645000000   -2.3218000000    2.7018000000 
C      6.0     -0.7611000000   -1.6742000000    2.0895000000 
C      6.0     -0.9287000000   -0.8767000000    0.8390000000 
N      7.0     -2.2468000000   -1.0002000000    0.2668000000 
C      6.0     -3.2521000000   -1.6820000000    0.9692000000 
C      6.0      0.1986000000   -0.2205000000    0.3853000000 
C      6.0     -2.6251000000   -0.4672000000   -1.0477000000 
C      6.0      0.3102000000    0.3844000000   -0.9606000000 
C      6.0      1.4883000000    0.5872000000   -1.5924000000 
C      6.0      2.7043000000    0.2436000000   -0.8749000000 
C      6.0      2.6282000000   -0.0173000000    0.4345000000 
N      7.0      1.4202000000   -0.0933000000    1.1307000000 
C      6.0      1.4086000000    0.4450000000    2.5033000000 
N      7.0      1.5613000000    1.1237000000   -2.8645000000 
C      6.0      2.7398000000    1.4300000000   -3.6362000000 
Cl    17.0     -1.4884000000   -3.2392000000    4.1315000000 
H      1.0     -3.8856000000   -2.8604000000    2.6167000000 
H      1.0      0.2396000000   -1.7960000000    2.4890000000 
H      1.0     -4.2261000000   -1.7061000000    0.4886000000 
H      1.0     -3.6562000000   -0.7195000000   -1.3192000000 
H      1.0     -1.9987000000   -0.8948000000   -1.8396000000 
H      1.0     -2.5725000000    0.6265000000   -1.0563000000 
H      1.0     -0.5797000000    0.7019000000   -1.4742000000 
H      1.0      3.6676000000    0.2952000000   -1.3642000000 
H      1.0      3.5144000000   -0.1725000000    1.0428000000 
H      1.0      0.4027000000    0.7280000000    2.8338000000 
H      1.0      2.0239000000    1.3489000000    2.5661000000 
H      1.0      1.8169000000   -0.2901000000    3.2036000000 
H      1.0      0.6868000000    1.4659000000   -3.2447000000 
H      1.0      2.4511000000    1.7569000000   -4.6383000000 
H      1.0      3.3182000000    2.2267000000   -3.1718000000 
H      1.0      3.3751000000    0.5468000000   -3.7459000000 
 $END


