 $CONTRL COORD=CART UNITS=ANGS $END

 $DATA
bpy.mol
C1
C      6.0     -2.3730000000    1.8163000000    1.1833000000 
C      6.0     -2.4943000000    1.0838000000   -0.0528000000 
C      6.0     -1.4733000000    0.2986000000   -0.4636000000 
C      6.0     -0.2265000000    0.1345000000    0.3238000000 
N      7.0     -0.1207000000    1.0010000000    1.4639000000 
C      6.0     -1.2289000000    1.7535000000    1.8695000000 
C      6.0      0.6565000000   -0.8631000000   -0.0127000000 
C      6.0      1.1980000000    1.4698000000    1.9364000000 
C      6.0      1.4676000000   -1.4626000000    1.0782000000 
C      6.0      2.3114000000   -2.4897000000    0.8796000000 
C      6.0      2.4322000000   -3.0803000000   -0.4315000000 
C      6.0      1.7040000000   -2.5688000000   -1.4312000000 
N      7.0      0.8520000000   -1.4623000000   -1.3027000000 
C      6.0      0.5689000000   -0.7167000000   -2.5459000000 
C      6.0      3.0809000000   -3.0167000000    2.0338000000 
O      8.0      4.1186000000   -3.6655000000    1.9075000000 
O      8.0     -3.7112000000    1.2773000000   -0.6623000000 
C      6.0     -3.9751000000    0.5512000000   -1.8521000000 
H      1.0     -3.1989000000    2.4310000000    1.5128000000 
H      1.0     -1.5941000000   -0.3079000000   -1.3417000000 
H      1.0     -1.0874000000    2.3381000000    2.7729000000 
H      1.0      1.2258000000    2.5652000000    1.9981000000 
H      1.0      2.0167000000    1.1873000000    1.2611000000 
H      1.0      1.4009000000    1.0653000000    2.9324000000 
H      1.0      1.3175000000   -1.0821000000    2.0808000000 
H      1.0      3.0999000000   -3.9254000000   -0.5671000000 
H      1.0      1.7787000000   -2.9818000000   -2.4348000000 
H      1.0      0.5223000000    0.3673000000   -2.3805000000 
H      1.0      1.3682000000   -0.8701000000   -3.2864000000 
H      1.0     -0.3622000000   -1.0697000000   -2.9954000000 
H      1.0      2.6855000000   -2.7535000000    3.0309000000 
H      1.0     -3.9912000000   -0.5250000000   -1.6554000000 
H      1.0     -3.2455000000    0.7973000000   -2.6315000000 
H      1.0     -4.9607000000    0.8442000000   -2.2174000000 
 $END


