 $CONTRL SCFTYP=RHF RUNTYP=HESSIAN EXETYP=RUN
 MAXIT=200 ICHARG=0 MULT=1 ISPHER=1
 COORD=CART UNITS=ANGS $END
 $BASIS GBASIS=CCD $END
 $SYSTEM TIMLIM=1300 MWORDS=100 PARALL=.TRUE. $END
 $SCF DIRSCF=.TRUE. $END 
 $STATPT HESS=READ $END

 $DATA
bpy.mol
C1
C      6.0     -3.4737000000   -0.0869000000    0.1116000000 
C      6.0     -2.8038000000   -0.4319000000   -1.1183000000 
C      6.0     -1.4686000000   -0.5587000000   -1.1530000000 
C      6.0     -0.6245000000   -0.2981000000    0.0326000000 
N      7.0     -1.3666000000   -0.3686000000    1.2606000000 
C      6.0     -2.7433000000   -0.1129000000    1.2353000000 
C      6.0      0.7205000000   -0.0428000000   -0.1075000000 
C      6.0     -0.8494000000   -1.0837000000    2.4380000000 
C      6.0      1.5341000000    0.2500000000    1.0998000000 
C      6.0      2.8754000000    0.1654000000    1.0921000000 
C      6.0      3.5773000000   -0.1692000000   -0.1165000000 
C      6.0      2.8732000000   -0.1880000000   -1.2555000000 
N      7.0      1.4888000000    0.0190000000   -1.3178000000 
C      6.0      0.9580000000    0.5671000000   -2.5733000000 
O      8.0      3.6764000000    0.4184000000    2.1761000000 
O      8.0     -3.5772000000   -0.6642000000   -2.2306000000 
H      1.0     -4.5358000000    0.1143000000    0.1372000000 
H      1.0     -1.0080000000   -0.8913000000   -2.0711000000 
H      1.0     -3.1932000000    0.0406000000    2.2116000000 
H      1.0      0.0318000000   -1.6903000000    2.2050000000 
H      1.0     -1.6021000000   -1.7801000000    2.8281000000 
H      1.0     -0.6069000000   -0.3756000000    3.2369000000 
H      1.0      1.0205000000    0.5709000000    1.9942000000 
H      1.0      4.6488000000   -0.3190000000   -0.0943000000 
H      1.0      3.3563000000   -0.3425000000   -2.2156000000 
H      1.0      0.7013000000   -0.2401000000   -3.2665000000 
H      1.0      0.0896000000    1.2129000000   -2.4088000000 
H      1.0      1.7076000000    1.1971000000   -3.0687000000 
H      1.0      3.1046000000    0.6892000000    2.9126000000 
H      1.0     -4.5112000000   -0.6023000000   -1.9738000000 
 $END


