 $CONTRL SCFTYP=RHF RUNTYP=HESSIAN EXETYP=RUN
 MAXIT=200 ICHARG=0 MULT=1 ISPHER=1
 COORD=CART UNITS=ANGS $END
 $BASIS GBASIS=CCD $END
 $SYSTEM TIMLIM=1300 MWORDS=100 PARALL=.TRUE. $END
 $SCF DIRSCF=.TRUE. $END 
 $STATPT HESS=READ $END

 $DATA
bpy.mol
C1
C      6.0     -3.3788000000   -1.3322000000    0.7811000000 
C      6.0     -2.5604000000   -2.2498000000    0.0230000000 
C      6.0     -1.3188000000   -1.9168000000   -0.3838000000 
C      6.0     -0.7200000000   -0.6030000000   -0.0385000000 
N      7.0     -1.6584000000    0.3361000000    0.5095000000 
C      6.0     -2.9053000000   -0.0958000000    0.9685000000 
C      6.0      0.6199000000   -0.3523000000   -0.2321000000 
C      6.0     -1.5151000000    1.7839000000    0.2522000000 
C      6.0      1.4412000000   -1.1770000000   -1.1515000000 
C      6.0      2.6570000000   -0.7855000000   -1.5653000000 
C      6.0      3.2370000000    0.4455000000   -1.0959000000 
C      6.0      2.5815000000    1.1140000000   -0.1382000000 
N      7.0      1.3475000000    0.7178000000    0.3886000000 
C      6.0      1.1069000000    1.0571000000    1.8037000000 
O      8.0      3.3859000000   -1.5406000000   -2.4531000000 
N      7.0     -3.0561000000   -3.5906000000   -0.2964000000 
O      8.0     -4.1191000000   -3.9419000000    0.2380000000 
O      8.0     -2.3971000000   -4.2985000000   -1.0762000000 
H      1.0     -4.3570000000   -1.6298000000    1.1420000000 
H      1.0     -0.7200000000   -2.6463000000   -0.9106000000 
H      1.0     -3.4937000000    0.6662000000    1.4731000000 
H      1.0     -0.7184000000    2.0188000000   -0.4599000000 
H      1.0     -1.3360000000    2.3192000000    1.1893000000 
H      1.0     -2.4390000000    2.1832000000   -0.1854000000 
H      1.0      1.0616000000   -2.0980000000   -1.5681000000 
H      1.0      4.1912000000    0.7918000000   -1.4669000000 
H      1.0      2.9998000000    2.0091000000    0.3126000000 
H      1.0      0.2383000000    0.5524000000    2.2343000000 
H      1.0      1.9684000000    0.7563000000    2.4123000000 
H      1.0      0.9733000000    2.1381000000    1.9141000000 
H      1.0      4.2328000000   -1.0950000000   -2.6207000000 
 $END


