 $CONTRL SCFTYP=RHF RUNTYP=HESSIAN EXETYP=RUN
 MAXIT=200 ICHARG=0 MULT=1 ISPHER=1
 COORD=CART UNITS=ANGS $END
 $BASIS GBASIS=CCD $END
 $SYSTEM TIMLIM=1300 MWORDS=100 PARALL=.TRUE. $END
 $SCF DIRSCF=.TRUE. $END 
 $STATPT HESS=READ $END

 $DATA
bpy.mol
C1
C      6.0     -3.4372000000   -1.2101000000    0.7290000000 
C      6.0     -2.9077000000   -1.6505000000   -0.5350000000 
C      6.0     -1.6175000000   -1.4099000000   -0.8565000000 
C      6.0     -0.7219000000   -0.6553000000    0.0450000000 
N      7.0     -1.2328000000   -0.4675000000    1.3691000000 
C      6.0     -2.5925000000   -0.6707000000    1.6210000000 
C      6.0      0.4868000000   -0.1864000000   -0.3937000000 
C      6.0     -0.3074000000   -0.4961000000    2.5210000000 
C      6.0      1.2166000000   -0.8772000000   -1.4694000000 
C      6.0      2.4813000000   -0.5552000000   -1.8034000000 
C      6.0      3.1563000000    0.5555000000   -1.1585000000 
C      6.0      2.4913000000    1.2115000000   -0.2017000000 
N      7.0      1.1774000000    0.9333000000    0.1941000000 
C      6.0      0.3946000000    2.1036000000    0.6860000000 
C      6.0      3.2031000000   -1.4201000000   -2.7803000000 
O      8.0      4.3976000000   -1.3009000000   -3.0452000000 
H      1.0     -4.4897000000   -1.3671000000    0.9593000000 
H      1.0     -3.5638000000   -2.1878000000   -1.2193000000 
H      1.0     -1.3028000000   -1.7064000000   -1.8439000000 
H      1.0     -2.9226000000   -0.3844000000    2.6156000000 
H      1.0     -0.7508000000   -1.0332000000    3.3745000000 
H      1.0     -0.0918000000    0.5337000000    2.8665000000 
H      1.0      0.6371000000   -1.0072000000    2.2868000000 
H      1.0      0.7592000000   -1.7425000000   -1.9327000000 
H      1.0      4.1454000000    0.8387000000   -1.4782000000 
H      1.0      2.9335000000    2.0687000000    0.3018000000 
H      1.0      0.8455000000    2.5123000000    1.5920000000 
H      1.0      0.3903000000    2.8924000000   -0.0740000000 
H      1.0     -0.6587000000    1.8838000000    0.8966000000 
H      1.0      2.5938000000   -2.2065000000   -3.2665000000 
 $END


