 $CONTRL SCFTYP=RHF RUNTYP=HESSIAN EXETYP=RUN
 MAXIT=200 ICHARG=0 MULT=1 ISPHER=1
 COORD=CART UNITS=ANGS $END
 $BASIS GBASIS=CCD $END
 $SYSTEM TIMLIM=1300 MWORDS=100 PARALL=.TRUE. $END
 $SCF DIRSCF=.TRUE. $END 
 $STATPT HESS=READ $END

 $DATA
bpy.mol
C1
C      6.0     -3.0267000000    1.4277000000   -1.7456000000 
C      6.0     -2.0842000000    0.7614000000   -2.6058000000 
C      6.0     -1.0305000000    0.1179000000   -2.0814000000 
C      6.0     -0.7785000000    0.0536000000   -0.6262000000 
N      7.0     -1.6999000000    0.8208000000    0.1863000000 
C      6.0     -2.7848000000    1.4574000000   -0.4340000000 
C      6.0      0.3238000000   -0.6587000000   -0.1924000000 
C      6.0     -1.8995000000    0.4619000000    1.6094000000 
C      6.0      1.0386000000   -0.1784000000    1.0142000000 
C      6.0      2.1564000000   -0.7700000000    1.4813000000 
C      6.0      2.6926000000   -1.9244000000    0.8030000000 
C      6.0      2.0707000000   -2.3712000000   -0.3014000000 
N      7.0      0.9095000000   -1.8060000000   -0.8273000000 
C      6.0      0.1334000000   -2.6518000000   -1.7593000000 
O      8.0      2.9308000000   -0.3699000000    2.5404000000 
C      6.0      3.2336000000    1.0304000000    2.5358000000 
Cl    17.0     -2.2756000000    0.9010000000   -4.3167000000 
H      1.0     -3.9040000000    1.8942000000   -2.1769000000 
H      1.0     -0.2672000000   -0.2704000000   -2.7522000000 
H      1.0     -3.4973000000    1.9447000000    0.2327000000 
H      1.0     -1.1837000000    0.9598000000    2.2588000000 
H      1.0     -1.8432000000   -0.6160000000    1.7381000000 
H      1.0     -2.8841000000    0.7681000000    1.9806000000 
H      1.0      0.6899000000    0.7325000000    1.4753000000 
H      1.0      3.6047000000   -2.3932000000    1.1570000000 
H      1.0      2.4760000000   -3.2365000000   -0.8492000000 
H      1.0     -0.9106000000   -2.7550000000   -1.4253000000 
H      1.0      0.1621000000   -2.2539000000   -2.7775000000 
H      1.0      0.5386000000   -3.6763000000   -1.8062000000 
H      1.0      2.3981000000    1.6009000000    2.9596000000 
H      1.0      4.1071000000    1.1705000000    3.1812000000 
H      1.0      3.4914000000    1.3986000000    1.5236000000 
 $END


