 $CONTRL COORD=CART UNITS=ANGS $END

 $DATA
bpy.mol
C1
C      6.0      0.4236000000   -0.1267000000    3.5362000000 
C      6.0     -0.7820000000   -0.1066000000    2.6773000000 
C      6.0     -0.8511000000   -1.2486000000    1.9299000000 
C      6.0      0.2647000000   -1.3174000000    0.9046000000 
N      7.0      1.5382000000   -1.0037000000    1.5287000000 
C      6.0      1.5213000000   -0.5388000000    2.8788000000 
C      6.0     -0.1753000000   -1.3105000000   -0.3985000000 
C      6.0      2.7315000000   -0.6006000000    0.7487000000 
C      6.0      0.5856000000   -0.5587000000   -1.4066000000 
C      6.0     -0.0411000000    0.2330000000   -2.3215000000 
C      6.0     -1.5058000000    0.1779000000   -2.3878000000 
C      6.0     -2.1490000000   -0.7888000000   -1.6945000000 
N      7.0     -1.4897000000   -1.6763000000   -0.8328000000 
C      6.0     -2.1669000000   -2.8988000000   -0.3714000000 
N      7.0      0.6014000000    1.1602000000   -3.1512000000 
C      6.0      1.6690000000    2.0061000000   -2.6699000000 
C      6.0     -0.8976000000    1.2835000000    2.0124000000 
H      1.0      0.4032000000    0.2200000000    4.5619000000 
H      1.0     -0.8841000000   -2.2036000000    2.4551000000 
H      1.0      2.5093000000   -0.5587000000    3.3023000000 
H      1.0      2.9611000000   -1.3520000000   -0.0120000000 
H      1.0      2.6020000000    0.3901000000    0.2759000000 
H      1.0      3.6331000000   -0.5350000000    1.3897000000 
H      1.0      1.6653000000   -0.5693000000   -1.4148000000 
H      1.0     -2.0266000000    0.8382000000   -3.0525000000 
H      1.0     -3.2207000000   -0.9689000000   -1.7957000000 
H      1.0     -1.4553000000   -3.5848000000    0.1212000000 
H      1.0     -2.9943000000   -2.6254000000    0.3001000000 
H      1.0     -2.5871000000   -3.4613000000   -1.2086000000 
H      1.0     -0.0705000000    1.6524000000   -3.7441000000 
H      1.0      2.6460000000    1.5826000000   -2.9291000000 
H      1.0      1.6362000000    2.1165000000   -1.5740000000 
H      1.0      1.5786000000    2.9877000000   -3.1266000000 
H      1.0     -1.6337000000    1.9273000000    2.5443000000 
H      1.0     -1.2049000000    1.2018000000    0.9416000000 
H      1.0      0.0533000000    1.8271000000    1.9830000000 
 $END


