 $CONTRL SCFTYP=RHF RUNTYP=HESSIAN EXETYP=RUN
 MAXIT=200 ICHARG=0 MULT=1 ISPHER=1
 COORD=CART UNITS=ANGS $END
 $BASIS GBASIS=CCD $END
 $SYSTEM TIMLIM=1300 MWORDS=100 PARALL=.TRUE. $END
 $SCF DIRSCF=.TRUE. $END 
 $STATPT HESS=READ $END

 $DATA
bpy.mol
C1
C      6.0      2.4409000000   -1.2589000000    2.5900000000 
C      6.0      1.3108000000   -0.5251000000    3.1024000000 
C      6.0      0.3957000000   -0.0110000000    2.2627000000 
C      6.0      0.4795000000   -0.1896000000    0.7923000000 
N      7.0      1.7445000000   -0.7045000000    0.3437000000 
C      6.0      2.6214000000   -1.2892000000    1.2643000000 
C      6.0     -0.5754000000    0.1282000000   -0.0351000000 
C      6.0      2.3363000000   -0.2317000000   -0.9231000000 
C      6.0     -1.6912000000    0.9944000000    0.4249000000 
C      6.0     -2.5551000000    1.5598000000   -0.4426000000 
C      6.0     -2.4664000000    1.2948000000   -1.8525000000 
C      6.0     -1.5846000000    0.3732000000   -2.2598000000 
N      7.0     -0.7035000000   -0.2955000000   -1.4006000000 
C      6.0     -0.3085000000   -1.6615000000   -1.7983000000 
O      8.0     -3.5729000000    2.4045000000   -0.0769000000 
H      1.0      3.1487000000   -1.7021000000    3.2808000000 
H      1.0      1.2341000000   -0.3823000000    4.1768000000 
H      1.0     -0.4238000000    0.5302000000    2.7095000000 
H      1.0      3.5039000000   -1.7525000000    0.8246000000 
H      1.0      3.3410000000    0.1752000000   -0.7469000000 
H      1.0      2.4394000000   -1.0553000000   -1.6377000000 
H      1.0      1.7644000000    0.5822000000   -1.3788000000 
H      1.0     -1.7899000000    1.2447000000    1.4744000000 
H      1.0     -3.1451000000    1.7863000000   -2.5363000000 
H      1.0     -1.5313000000    0.0619000000   -3.2978000000 
H      1.0      0.3843000000   -1.6185000000   -2.6440000000 
H      1.0     -1.1900000000   -2.2264000000   -2.1210000000 
H      1.0      0.1459000000   -2.2406000000   -0.9899000000 
H      1.0     -3.6052000000    2.4370000000    0.8950000000 
 $END


