 $CONTRL COORD=CART UNITS=ANGS $END

 $DATA
bpy.mol
C1
C      6.0     -1.5310000000    2.8832000000   -1.0671000000 
C      6.0     -2.2078000000    2.0889000000   -0.0854000000 
C      6.0     -1.6547000000    0.9226000000    0.3091000000 
C      6.0     -0.2807000000    0.5253000000   -0.0719000000 
N      7.0      0.4427000000    1.4667000000   -0.8848000000 
C      6.0     -0.2744000000    2.5526000000   -1.4180000000 
C      6.0      0.1671000000   -0.6723000000    0.4286000000 
C      6.0      1.6766000000    1.0663000000   -1.5790000000 
C      6.0     -0.6487000000   -1.8305000000   -0.0276000000 
C      6.0     -0.2183000000   -3.0812000000    0.2044000000 
C      6.0      0.9389000000   -3.3512000000    1.0367000000 
C      6.0      1.6943000000   -2.3114000000    1.4317000000 
N      7.0      1.4323000000   -0.9783000000    1.0493000000 
C      6.0      2.2257000000    0.0649000000    1.7109000000 
N      7.0     -0.9275000000   -4.2111000000   -0.4330000000 
O      8.0     -1.5014000000   -4.0022000000   -1.5229000000 
O      8.0     -0.8316000000   -5.3106000000    0.1295000000 
H      1.0     -2.0706000000    3.7074000000   -1.5444000000 
H      1.0     -3.1813000000    2.3993000000    0.2882000000 
H      1.0     -2.1814000000    0.2892000000    1.0365000000 
H      1.0      0.2419000000    3.1375000000   -2.1771000000 
H      1.0      2.5071000000    0.9422000000   -0.8735000000 
H      1.0      1.5122000000    0.1369000000   -2.1288000000 
H      1.0      2.0113000000    1.8301000000   -2.2970000000 
H      1.0     -1.5018000000   -1.6020000000   -0.6634000000 
H      1.0      1.1629000000   -4.3586000000    1.3641000000 
H      1.0      2.5072000000   -2.4653000000    2.1275000000 
H      1.0      1.5745000000    0.6837000000    2.3843000000 
H      1.0      2.6506000000    0.7514000000    0.9562000000 
H      1.0      3.0647000000   -0.3083000000    2.3166000000 
 $END


