 $CONTRL SCFTYP=RHF RUNTYP=HESSIAN EXETYP=RUN
 MAXIT=200 ICHARG=0 MULT=1 ISPHER=1
 COORD=CART UNITS=ANGS $END
 $BASIS GBASIS=CCD $END
 $SYSTEM TIMLIM=1300 MWORDS=100 PARALL=.TRUE. $END
 $SCF DIRSCF=.TRUE. $END 
 $STATPT HESS=READ $END

 $DATA
bpy.mol
C1
C      6.0     -2.7277000000   -0.9207000000    2.1704000000 
C      6.0     -1.4036000000   -0.7134000000    2.6942000000 
C      6.0     -0.3816000000   -0.4213000000    1.8736000000 
C      6.0     -0.5483000000   -0.3039000000    0.4049000000 
N      7.0     -1.9077000000   -0.3941000000   -0.0437000000 
C      6.0     -2.9171000000   -0.7528000000    0.8564000000 
C      6.0      0.5782000000   -0.2311000000   -0.3784000000 
C      6.0     -2.3484000000    0.2459000000   -1.2974000000 
C      6.0      0.5170000000   -0.7884000000   -1.7515000000 
C      6.0      1.6114000000   -0.9568000000   -2.5114000000 
C      6.0      2.9106000000   -0.5870000000   -2.0161000000 
C      6.0      2.9844000000   -0.0210000000   -0.8057000000 
N      7.0      1.8786000000    0.2299000000    0.0141000000 
C      6.0      2.0495000000    1.2762000000    1.0393000000 
Cl    17.0      1.5076000000   -1.6689000000   -4.0773000000 
Cl    17.0     -1.1584000000   -0.9023000000    4.3896000000 
H      1.0     -3.5405000000   -1.1897000000    2.8334000000 
H      1.0      0.6136000000   -0.3734000000    2.2939000000 
H      1.0     -3.9037000000   -0.8641000000    0.4151000000 
H      1.0     -2.5944000000   -0.5151000000   -2.0451000000 
H      1.0     -3.2474000000    0.8514000000   -1.1278000000 
H      1.0     -1.5985000000    0.9303000000   -1.7068000000 
H      1.0     -0.4251000000   -1.1714000000   -2.1196000000 
H      1.0      3.7926000000   -0.7547000000   -2.6215000000 
H      1.0      3.9375000000    0.3056000000   -0.3992000000 
H      1.0      1.1101000000    1.7828000000    1.2836000000 
H      1.0      2.7304000000    2.0598000000    0.6842000000 
H      1.0      2.4809000000    0.8468000000    1.9491000000 
 $END


