 $CONTRL SCFTYP=RHF RUNTYP=HESSIAN EXETYP=RUN
 MAXIT=200 ICHARG=0 MULT=1 ISPHER=1
 COORD=CART UNITS=ANGS $END
 $BASIS GBASIS=CCD $END
 $SYSTEM TIMLIM=1300 MWORDS=100 PARALL=.TRUE. $END
 $SCF DIRSCF=.TRUE. $END 
 $STATPT HESS=READ $END

 $DATA
bpy.mol
C1
C      6.0      2.1066000000    1.2309000000   -0.7569000000 
C      6.0      2.2690000000   -0.1494000000   -1.1724000000 
C      6.0      1.4558000000   -1.1304000000   -0.6575000000 
C      6.0      0.3864000000   -0.7513000000    0.3333000000 
N      7.0      0.8106000000    0.3672000000    1.1434000000 
C      6.0      1.4514000000    1.3781000000    0.4433000000 
C      6.0     -0.9333000000   -1.0097000000    0.0797000000 
C      6.0      1.4429000000   -0.0191000000    2.4366000000 
C      6.0     -1.3426000000   -2.3397000000   -0.5225000000 
C      6.0     -2.6019000000   -2.4824000000   -1.0099000000 
C      6.0     -3.5221000000   -1.3726000000   -1.0598000000 
C      6.0     -3.2915000000   -0.2644000000   -0.3125000000 
N      7.0     -2.0539000000   -0.0587000000    0.3410000000 
C      6.0     -1.9324000000    1.1781000000    1.1743000000 
Cl    17.0     -3.1820000000   -3.9930000000   -1.7123000000 
C      6.0      3.3939000000   -0.4137000000   -2.1787000000 
O      8.0      3.7195000000   -1.5202000000   -2.6061000000 
H      1.0      2.2140000000    2.1682000000   -1.3459000000 
H      1.0      1.6897000000   -2.1949000000   -0.8498000000 
H      1.0      1.3988000000    2.3645000000    0.9017000000 
H      1.0      2.4585000000   -0.4299000000    2.2822000000 
H      1.0      0.8269000000   -0.7721000000    2.9783000000 
H      1.0      1.4987000000    0.8722000000    3.1104000000 
H      1.0     -0.5478000000   -3.1487000000   -0.3782000000 
H      1.0     -4.3791000000   -1.4872000000   -1.6544000000 
H      1.0     -3.9860000000    0.5533000000   -0.3072000000 
H      1.0     -1.3666000000    1.9507000000    0.5324000000 
H      1.0     -1.4451000000    0.9793000000    2.1262000000 
H      1.0     -2.9399000000    1.5964000000    1.3874000000 
H      1.0      3.7511000000    0.4685000000   -2.7460000000 
 $END


