 $CONTRL COORD=CART UNITS=ANGS $END

 $DATA
bpy.mol
C1
C      6.0     -3.0785000000   -1.9514000000   -1.8042000000 
C      6.0     -2.3315000000   -2.5832000000   -0.7429000000 
C      6.0     -1.2884000000   -1.9674000000   -0.1510000000 
C      6.0     -0.8358000000   -0.6222000000   -0.5838000000 
N      7.0     -1.7302000000    0.0260000000   -1.5043000000 
C      6.0     -2.7556000000   -0.6933000000   -2.1208000000 
C      6.0      0.3426000000   -0.0786000000   -0.1252000000 
C      6.0     -1.8327000000    1.4992000000   -1.5388000000 
C      6.0      0.9960000000   -0.5593000000    1.1190000000 
C      6.0      1.9641000000    0.1261000000    1.7660000000 
C      6.0      2.4224000000    1.3718000000    1.1751000000 
C      6.0      1.9705000000    1.7326000000   -0.0320000000 
N      7.0      1.0235000000    1.0091000000   -0.7595000000 
C      6.0      1.2278000000    0.9784000000   -2.2222000000 
N      7.0      2.5616000000   -0.2549000000    2.9531000000 
C      6.0      2.1268000000   -1.3180000000    3.8313000000 
N      7.0     -2.6728000000   -3.9388000000   -0.3010000000 
O      8.0     -3.7633000000   -4.4013000000   -0.6706000000 
O      8.0     -1.8578000000   -4.5513000000    0.4073000000 
H      1.0     -3.8947000000   -2.4698000000   -2.2945000000 
H      1.0     -0.7275000000   -2.4923000000    0.6105000000 
H      1.0     -3.3120000000   -0.1434000000   -2.8731000000 
H      1.0     -1.4366000000    1.9674000000   -0.6314000000 
H      1.0     -1.3186000000    1.9015000000   -2.4163000000 
H      1.0     -2.8828000000    1.8109000000   -1.6038000000 
H      1.0      0.6493000000   -1.4709000000    1.5810000000 
H      1.0      3.1759000000    1.9634000000    1.6819000000 
H      1.0      2.3632000000    2.6115000000   -0.5381000000 
H      1.0      0.4920000000    0.3708000000   -2.7567000000 
H      1.0      1.1888000000    1.9939000000   -2.6335000000 
H      1.0      2.2141000000    0.5526000000   -2.4486000000 
H      1.0      3.0862000000    0.4843000000    3.4115000000 
H      1.0      2.1883000000   -2.2889000000    3.3297000000 
H      1.0      2.7760000000   -1.3566000000    4.7129000000 
H      1.0      1.1009000000   -1.1506000000    4.1729000000 
 $END


