 $CONTRL SCFTYP=RHF RUNTYP=HESSIAN EXETYP=RUN
 MAXIT=200 ICHARG=0 MULT=1 ISPHER=1
 COORD=CART UNITS=ANGS $END
 $BASIS GBASIS=CCD $END
 $SYSTEM TIMLIM=1300 MWORDS=100 PARALL=.TRUE. $END
 $SCF DIRSCF=.TRUE. $END 
 $STATPT HESS=READ $END

 $DATA
bpy.mol
C1
C      6.0     -2.4813000000   -1.3994000000   -0.9392000000 
C      6.0     -1.7446000000   -0.5012000000   -1.8084000000 
C      6.0     -0.6214000000    0.0690000000   -1.3181000000 
C      6.0     -0.0940000000   -0.1837000000    0.0477000000 
N      7.0     -1.0152000000   -0.8680000000    0.9028000000 
C      6.0     -2.1136000000   -1.5188000000    0.3421000000 
C      6.0      1.1747000000    0.2031000000    0.4167000000 
C      6.0     -1.1118000000   -0.5294000000    2.3333000000 
C      6.0      1.9281000000    1.2290000000   -0.3466000000 
C      6.0      3.0482000000    1.7957000000    0.1345000000 
C      6.0      3.5882000000    1.3977000000    1.4086000000 
C      6.0      3.0089000000    0.3693000000    2.0387000000 
N      7.0      1.8871000000   -0.3086000000    1.5538000000 
C      6.0      1.7509000000   -1.7225000000    1.9515000000 
Cl    17.0      3.8731000000    3.0264000000   -0.7479000000 
N      7.0     -2.1882000000   -0.2687000000   -3.1015000000 
C      6.0     -3.5236000000   -0.5022000000   -3.6060000000 
H      1.0     -3.3410000000   -1.9379000000   -1.3127000000 
H      1.0     -0.0601000000    0.6983000000   -1.9920000000 
H      1.0     -2.6838000000   -2.1282000000    1.0365000000 
H      1.0     -0.9920000000   -1.4308000000    2.9432000000 
H      1.0     -2.0989000000   -0.1040000000    2.5528000000 
H      1.0     -0.3810000000    0.2170000000    2.6567000000 
H      1.0      1.5528000000    1.5894000000   -1.2930000000 
H      1.0      4.4648000000    1.8914000000    1.8085000000 
H      1.0      3.4109000000   -0.0228000000    2.9684000000 
H      1.0      2.7268000000   -2.2218000000    1.9066000000 
H      1.0      1.3880000000   -1.7915000000    2.9819000000 
H      1.0      1.0884000000   -2.2972000000    1.2981000000 
H      1.0     -1.7042000000    0.4990000000   -3.5590000000 
H      1.0     -3.7778000000   -1.5661000000   -3.5772000000 
H      1.0     -4.2628000000    0.0642000000   -3.0311000000 
H      1.0     -3.5831000000   -0.1772000000   -4.6494000000 
 $END


