 $CONTRL SCFTYP=RHF RUNTYP=HESSIAN EXETYP=RUN
 MAXIT=200 ICHARG=0 MULT=1 ISPHER=1
 COORD=CART UNITS=ANGS $END
 $BASIS GBASIS=CCD $END
 $SYSTEM TIMLIM=1300 MWORDS=100 PARALL=.TRUE. $END
 $SCF DIRSCF=.TRUE. $END 
 $STATPT HESS=READ $END

 $DATA
bpy.mol
C1
C      6.0     -1.5305000000   -0.6915000000   -2.6964000000 
C      6.0     -0.7208000000   -1.7357000000   -2.1261000000 
C      6.0     -0.2499000000   -1.6375000000   -0.8685000000 
C      6.0     -0.4450000000   -0.4213000000   -0.0516000000 
N      7.0     -1.4135000000    0.5025000000   -0.5869000000 
C      6.0     -1.8475000000    0.3496000000   -1.9134000000 
C      6.0      0.2543000000   -0.2062000000    1.1134000000 
C      6.0     -2.3992000000    1.1017000000    0.3308000000 
C      6.0      0.9573000000   -1.3069000000    1.8224000000 
C      6.0      1.4327000000   -1.1784000000    3.0671000000 
C      6.0      1.2930000000    0.0704000000    3.7642000000 
C      6.0      0.8035000000    1.1240000000    3.0980000000 
N      7.0      0.3666000000    1.0699000000    1.7687000000 
C      6.0      0.5737000000    2.2970000000    0.9739000000 
O      8.0     -0.5446000000   -2.8555000000   -2.9073000000 
C      6.0      0.6125000000   -2.7512000000   -3.7286000000 
H      1.0     -1.9251000000   -0.7963000000   -3.6955000000 
H      1.0      0.3386000000   -2.4729000000   -0.5060000000 
H      1.0     -2.5258000000    1.1281000000   -2.2500000000 
H      1.0     -1.9989000000    1.3820000000    1.3091000000 
H      1.0     -2.8302000000    2.0102000000   -0.1090000000 
H      1.0     -3.2065000000    0.3820000000    0.5064000000 
H      1.0      1.0700000000   -2.2694000000    1.3538000000 
H      1.0      1.9358000000   -1.9979000000    3.5727000000 
H      1.0      1.6507000000    0.1577000000    4.7760000000 
H      1.0      0.7575000000    2.1096000000    3.5527000000 
H      1.0      1.6518000000    2.5023000000    0.9131000000 
H      1.0      0.1967000000    2.2441000000   -0.0446000000 
H      1.0      0.0898000000    3.1525000000    1.4603000000 
H      1.0      1.4958000000   -2.9730000000   -3.1532000000 
H      1.0      0.7060000000   -1.7826000000   -4.2457000000 
H      1.0      0.5010000000   -3.5085000000   -4.4996000000 
 $END


