 $CONTRL COORD=CART UNITS=ANGS $END

 $DATA
bpy.mol
C1
C      6.0     -2.2645000000   -3.1086000000   -0.9804000000 
C      6.0     -1.6113000000   -2.3715000000   -2.0295000000 
C      6.0     -0.6843000000   -1.4478000000   -1.7307000000 
C      6.0     -0.3220000000   -1.1083000000   -0.3308000000 
N      7.0     -0.7357000000   -2.1097000000    0.6082000000 
C      6.0     -1.7822000000   -2.9745000000    0.2621000000 
C      6.0      0.3722000000    0.0585000000   -0.1070000000 
C      6.0     -0.0315000000   -2.3992000000    1.8625000000 
C      6.0      0.8251000000    0.4457000000    1.2435000000 
C      6.0      1.8565000000    1.2999000000    1.4079000000 
C      6.0      2.5005000000    1.9224000000    0.2690000000 
C      6.0      1.8782000000    1.8063000000   -0.9124000000 
N      7.0      0.7304000000    1.0289000000   -1.1007000000 
C      6.0     -0.2847000000    1.5801000000   -2.0222000000 
N      7.0      2.2442000000    1.6560000000    2.7705000000 
O      8.0      3.0918000000    2.5503000000    2.9020000000 
O      8.0      1.7114000000    1.0551000000    3.7145000000 
Cl    17.0     -2.0283000000   -2.7251000000   -3.6616000000 
H      1.0     -3.0758000000   -3.7879000000   -1.2107000000 
H      1.0     -0.1592000000   -0.9453000000   -2.5343000000 
H      1.0     -2.1789000000   -3.5643000000    1.0829000000 
H      1.0      1.0333000000   -2.1549000000    1.8030000000 
H      1.0     -0.4994000000   -1.8697000000    2.6970000000 
H      1.0     -0.0747000000   -3.4715000000    2.0953000000 
H      1.0      0.2789000000    0.0592000000    2.0923000000 
H      1.0      3.3846000000    2.5378000000    0.3948000000 
H      1.0      2.2169000000    2.3404000000   -1.7963000000 
H      1.0      0.0640000000    1.5095000000   -3.0586000000 
H      1.0     -0.4621000000    2.6382000000   -1.7910000000 
H      1.0     -1.2567000000    1.0862000000   -1.9393000000 
 $END


