 $CONTRL SCFTYP=RHF RUNTYP=HESSIAN EXETYP=RUN
 MAXIT=200 ICHARG=0 MULT=1 ISPHER=1
 COORD=CART UNITS=ANGS $END
 $BASIS GBASIS=CCD $END
 $SYSTEM TIMLIM=1300 MWORDS=100 PARALL=.TRUE. $END
 $SCF DIRSCF=.TRUE. $END 
 $STATPT HESS=READ $END

 $DATA
bpy.mol
C1
C      6.0     -1.0571000000   -3.0796000000    0.4404000000 
C      6.0      0.1855000000   -2.5377000000    0.9530000000 
C      6.0      0.4455000000   -1.2262000000    0.7797000000 
C      6.0     -0.4619000000   -0.3182000000    0.0373000000 
N      7.0     -1.7955000000   -0.8355000000   -0.0592000000 
C      6.0     -1.9887000000   -2.2192000000    0.0095000000 
C      6.0      0.0092000000    0.8820000000   -0.4450000000 
C      6.0     -2.9838000000    0.0102000000    0.1166000000 
C      6.0     -0.8993000000    1.7896000000   -1.1851000000 
C      6.0     -0.6273000000    3.0942000000   -1.3619000000 
C      6.0      0.6113000000    3.6425000000   -0.8683000000 
C      6.0      1.5443000000    2.7827000000   -0.4390000000 
N      7.0      1.3454000000    1.3990000000   -0.3547000000 
C      6.0      2.5312000000    0.5486000000   -0.5262000000 
C      6.0      1.0938000000   -3.4703000000    1.6907000000 
H      1.0     -1.2463000000   -4.1453000000    0.4848000000 
H      1.0      1.3347000000   -0.8017000000    1.2258000000 
H      1.0     -2.9751000000   -2.5565000000   -0.2944000000 
H      1.0     -3.4827000000    0.1737000000   -0.8437000000 
H      1.0     -2.7451000000    0.9728000000    0.5805000000 
H      1.0     -3.7070000000   -0.4736000000    0.7852000000 
H      1.0     -1.7947000000    1.3803000000   -1.6317000000 
H      1.0     -1.2984000000    3.7408000000   -1.9151000000 
H      1.0      0.7944000000    4.7073000000   -0.9347000000 
H      1.0      2.5355000000    3.1182000000   -0.1491000000 
H      1.0      2.2901000000   -0.4187000000   -0.9789000000 
H      1.0      3.2530000000    1.0241000000   -1.2019000000 
H      1.0      3.0328000000    0.3941000000    0.4348000000 
H      1.0      1.9825000000   -2.9566000000    2.0731000000 
H      1.0      1.4348000000   -4.2755000000    1.0310000000 
H      1.0      0.5762000000   -3.9181000000    2.5461000000 
 $END


