 $CONTRL COORD=CART UNITS=ANGS $END

 $DATA
bpy.mol
C1
C      6.0     -1.5424000000   -1.1618000000   -3.3489000000 
C      6.0     -2.4603000000   -1.0844000000   -2.2391000000 
C      6.0     -1.9966000000   -0.8660000000   -0.9955000000 
C      6.0     -0.5616000000   -0.6238000000   -0.7303000000 
N      7.0      0.2807000000   -1.1452000000   -1.7678000000 
C      6.0     -0.2350000000   -1.2476000000   -3.0661000000 
C      6.0     -0.1334000000    0.0525000000    0.3900000000 
C      6.0      1.4023000000   -2.0447000000   -1.4433000000 
C      6.0      1.3189000000    0.3645000000    0.5051000000 
C      6.0      1.8922000000    0.8289000000    1.6328000000 
C      6.0      1.0687000000    1.0192000000    2.8068000000 
C      6.0     -0.2612000000    0.9252000000    2.6675000000 
N      7.0     -0.9057000000    0.5936000000    1.4709000000 
C      6.0     -2.2905000000    1.0553000000    1.3239000000 
C      6.0      3.3330000000    1.2143000000    1.7217000000 
H      1.0     -1.9199000000   -1.2395000000   -4.3643000000 
H      1.0     -3.5135000000   -1.2615000000   -2.4276000000 
H      1.0     -2.6906000000   -0.8956000000   -0.1743000000 
H      1.0      0.5129000000   -1.4171000000   -3.8354000000 
H      1.0      1.6491000000   -2.0668000000   -0.3786000000 
H      1.0      1.1532000000   -3.0765000000   -1.7293000000 
H      1.0      2.2985000000   -1.7407000000   -1.9977000000 
H      1.0      1.9223000000    0.2765000000   -0.3903000000 
H      1.0      1.5200000000    1.2956000000    3.7500000000 
H      1.0     -0.9260000000    1.1310000000    3.5017000000 
H      1.0     -2.4985000000    1.8867000000    2.0016000000 
H      1.0     -2.9961000000    0.2559000000    1.5722000000 
H      1.0     -2.4874000000    1.4370000000    0.3164000000 
H      1.0      3.8044000000    0.7788000000    2.6083000000 
H      1.0      3.8995000000    0.8791000000    0.8472000000 
H      1.0      3.4252000000    2.3046000000    1.7724000000 
 $END


