 $CONTRL COORD=CART UNITS=ANGS $END

 $DATA
bpy.mol
C1
C      6.0     -1.0388000000    0.5707000000    3.0461000000 
C      6.0      0.2702000000    0.8936000000    2.5388000000 
C      6.0      0.7643000000    0.2456000000    1.4628000000 
C      6.0     -0.0548000000   -0.7180000000    0.6807000000 
N      7.0     -1.2376000000   -1.1905000000    1.3664000000 
C      6.0     -1.7017000000   -0.4458000000    2.4739000000 
C      6.0      0.2991000000   -0.9978000000   -0.6171000000 
C      6.0     -2.2437000000   -2.0179000000    0.7016000000 
C      6.0      1.1163000000   -0.0254000000   -1.3815000000 
C      6.0      1.0785000000    0.0077000000   -2.7272000000 
C      6.0      0.3171000000   -0.9689000000   -3.4781000000 
C      6.0     -0.2141000000   -1.9877000000   -2.7837000000 
N      7.0     -0.1446000000   -2.1088000000   -1.3933000000 
C      6.0      0.2636000000   -3.4581000000   -0.9143000000 
N      7.0      1.8952000000    1.0059000000   -3.4203000000 
O      8.0      2.0512000000    0.8691000000   -4.6422000000 
O      8.0      2.3974000000    1.9238000000   -2.7529000000 
O      8.0      0.9787000000    1.7822000000    3.3113000000 
C      6.0      1.1107000000    3.0466000000    2.6535000000 
H      1.0     -1.4510000000    1.1564000000    3.8681000000 
H      1.0      1.8219000000    0.3536000000    1.2351000000 
H      1.0     -2.7045000000   -0.6920000000    2.8192000000 
H      1.0     -1.8421000000   -2.9570000000    0.3266000000 
H      1.0     -3.0272000000   -2.3317000000    1.4004000000 
H      1.0     -2.7260000000   -1.4769000000   -0.1289000000 
H      1.0      1.6910000000    0.7063000000   -0.8417000000 
H      1.0      0.2607000000   -0.9422000000   -4.5609000000 
H      1.0     -0.7097000000   -2.8179000000   -3.2837000000 
H      1.0     -0.5454000000   -4.1922000000   -1.0662000000 
H      1.0      0.6002000000   -3.4457000000    0.1245000000 
H      1.0      1.0928000000   -3.8187000000   -1.5406000000 
H      1.0      0.1321000000    3.4768000000    2.4198000000 
H      1.0      1.7301000000    2.9527000000    1.7489000000 
H      1.0      1.6189000000    3.7095000000    3.3550000000 
 $END


