 $CONTRL COORD=CART UNITS=ANGS $END

 $DATA
bpy.mol
C1
C      6.0     -0.0175000000    2.9225000000    0.4844000000 
C      6.0      0.5472000000    1.9631000000    1.4123000000 
C      6.0      0.3969000000    0.6498000000    1.1699000000 
C      6.0     -0.3859000000    0.1575000000    0.0150000000 
N      7.0     -1.3142000000    1.1381000000   -0.4728000000 
C      6.0     -0.9439000000    2.4874000000   -0.3791000000 
C      6.0     -0.2208000000   -1.1169000000   -0.4668000000 
C      6.0     -2.7668000000    0.8622000000   -0.5076000000 
C      6.0     -1.1377000000   -1.6235000000   -1.5125000000 
C      6.0     -1.2308000000   -2.9254000000   -1.8223000000 
C      6.0     -0.3417000000   -3.8809000000   -1.1944000000 
C      6.0      0.6503000000   -3.3950000000   -0.4257000000 
N      7.0      0.8228000000   -2.0350000000   -0.1148000000 
C      6.0      2.2003000000   -1.5867000000    0.1887000000 
C      6.0      1.1908000000    2.4027000000    2.6698000000 
O      8.0      1.4516000000    3.5770000000    2.9112000000 
H      1.0      0.2732000000    3.9643000000    0.5423000000 
H      1.0      0.7173000000   -0.0967000000    1.8884000000 
H      1.0     -1.4681000000    3.1539000000   -1.0631000000 
H      1.0     -3.2037000000    1.2395000000   -1.4430000000 
H      1.0     -3.0304000000   -0.1951000000   -0.3775000000 
H      1.0     -3.2659000000    1.4029000000    0.3111000000 
H      1.0     -1.7882000000   -0.9267000000   -2.0321000000 
H      1.0     -1.9470000000   -3.2806000000   -2.5613000000 
H      1.0     -0.4559000000   -4.9463000000   -1.4019000000 
H      1.0      1.4067000000   -4.0558000000   -0.0013000000 
H      1.0      2.4799000000   -0.7201000000   -0.4251000000 
H      1.0      2.9215000000   -2.3777000000   -0.0449000000 
H      1.0      2.3224000000   -1.3658000000    1.2576000000 
H      1.0      1.4248000000    1.6060000000    3.3955000000 
 $END


