 $CONTRL SCFTYP=RHF RUNTYP=HESSIAN EXETYP=RUN
 MAXIT=200 ICHARG=0 MULT=1 ISPHER=1
 COORD=CART UNITS=ANGS $END
 $BASIS GBASIS=CCD $END
 $SYSTEM TIMLIM=1300 MWORDS=100 PARALL=.TRUE. $END
 $SCF DIRSCF=.TRUE. $END 
 $STATPT HESS=READ $END

 $DATA
bpy.mol
C1
C      6.0     -1.8415000000   -1.7287000000   -1.1471000000 
C      6.0     -1.8683000000   -0.2897000000   -1.4207000000 
C      6.0     -1.0050000000    0.4828000000   -0.7228000000 
C      6.0     -0.0762000000   -0.1144000000    0.2575000000 
N      7.0     -0.6230000000   -1.2729000000    0.8973000000 
C      6.0     -1.2541000000   -2.1554000000   -0.0098000000 
C      6.0      1.2207000000    0.3071000000    0.3750000000 
C      6.0     -1.4517000000   -0.9948000000    2.1040000000 
C      6.0      1.7562000000    1.3271000000   -0.5660000000 
C      6.0      3.0726000000    1.5762000000   -0.6839000000 
C      6.0      4.0256000000    0.8897000000    0.1497000000 
C      6.0      3.5621000000    0.0389000000    1.0738000000 
N      7.0      2.2078000000   -0.2350000000    1.2720000000 
C      6.0      1.8362000000   -0.8612000000    2.5646000000 
Cl    17.0      3.6628000000    2.6895000000   -1.8551000000 
N      7.0     -2.7611000000    0.2567000000   -2.3305000000 
C      6.0     -3.9192000000   -0.4211000000   -2.8699000000 
H      1.0     -2.3157000000   -2.4289000000   -1.8297000000 
H      1.0     -0.9977000000    1.5592000000   -0.8560000000 
H      1.0     -1.2233000000   -3.1971000000    0.2931000000 
H      1.0     -1.5594000000   -1.9038000000    2.7174000000 
H      1.0     -2.4359000000   -0.6127000000    1.7820000000 
H      1.0     -0.9991000000   -0.2210000000    2.7294000000 
H      1.0      1.0887000000    1.8559000000   -1.2352000000 
H      1.0      5.0902000000    1.0637000000    0.0209000000 
H      1.0      4.2343000000   -0.4983000000    1.7367000000 
H      1.0      2.6559000000   -0.7627000000    3.2914000000 
H      1.0      1.0042000000   -0.3273000000    3.0335000000 
H      1.0      1.6161000000   -1.9445000000    2.5054000000 
H      1.0     -2.8815000000    1.2682000000   -2.2175000000 
H      1.0     -3.6301000000   -1.1591000000   -3.6240000000 
H      1.0     -4.4965000000   -0.9213000000   -2.0838000000 
H      1.0     -4.5819000000    0.3047000000   -3.3513000000 
 $END


