 $CONTRL SCFTYP=RHF RUNTYP=HESSIAN EXETYP=RUN
 MAXIT=200 ICHARG=0 MULT=1 ISPHER=1
 COORD=CART UNITS=ANGS $END
 $BASIS GBASIS=CCD $END
 $SYSTEM TIMLIM=1300 MWORDS=100 PARALL=.TRUE. $END
 $SCF DIRSCF=.TRUE. $END 
 $STATPT HESS=READ $END

 $DATA
bpy.mol
C1
C      6.0     -2.8838000000   -1.0034000000   -2.2006000000 
C      6.0     -2.3209000000   -2.0258000000   -1.3391000000 
C      6.0     -1.2860000000   -1.7224000000   -0.5295000000 
C      6.0     -0.6966000000   -0.3558000000   -0.4642000000 
N      7.0     -1.4497000000    0.6437000000   -1.1649000000 
C      6.0     -2.4444000000    0.2517000000   -2.0644000000 
C      6.0      0.4816000000   -0.1181000000    0.2077000000 
C      6.0     -1.6543000000    1.9648000000   -0.5337000000 
C      6.0      0.9297000000   -1.0168000000    1.3077000000 
C      6.0      1.9617000000   -0.7242000000    2.1232000000 
C      6.0      2.7129000000    0.4913000000    1.9053000000 
C      6.0      2.4004000000    1.2666000000    0.8559000000 
N      7.0      1.3577000000    0.9972000000   -0.0344000000 
C      6.0      1.4718000000    1.5575000000   -1.3948000000 
C      6.0      2.3599000000   -1.5722000000    3.2932000000 
C      6.0     -2.8597000000   -3.4074000000   -1.4171000000 
O      8.0     -2.8451000000   -4.0705000000   -0.2372000000 
O      8.0     -3.3356000000   -3.8857000000   -2.4339000000 
H      1.0     -3.6604000000   -1.2676000000   -2.9099000000 
H      1.0     -0.7961000000   -2.5228000000   -0.0000000000 
H      1.0     -2.8732000000    1.0584000000   -2.6522000000 
H      1.0     -2.6154000000    1.9761000000   -0.0019000000 
H      1.0     -0.8821000000    2.2250000000    0.2011000000 
H      1.0     -1.6830000000    2.7488000000   -1.3020000000 
H      1.0      0.3574000000   -1.9049000000    1.5368000000 
H      1.0      3.5274000000    0.7492000000    2.5727000000 
H      1.0      2.9712000000    2.1641000000    0.6329000000 
H      1.0      1.5061000000    0.7565000000   -2.1449000000 
H      1.0      2.3934000000    2.1446000000   -1.5187000000 
H      1.0      0.6444000000    2.2347000000   -1.6212000000 
H      1.0      3.3651000000   -1.9818000000    3.1496000000 
H      1.0      2.3569000000   -0.9802000000    4.2157000000 
H      1.0      1.6678000000   -2.4116000000    3.4422000000 
H      1.0     -2.7165000000   -3.4749000000    0.5209000000 
 $END


