 $CONTRL SCFTYP=RHF RUNTYP=HESSIAN EXETYP=RUN
 MAXIT=200 ICHARG=0 MULT=1 ISPHER=1
 COORD=CART UNITS=ANGS $END
 $BASIS GBASIS=CCD $END
 $SYSTEM TIMLIM=1300 MWORDS=100 PARALL=.TRUE. $END
 $SCF DIRSCF=.TRUE. $END 
 $STATPT HESS=READ $END

 $DATA
bpy.mol
C1
C      6.0     -2.8566000000    0.0784000000    2.2365000000 
C      6.0     -3.2594000000   -0.0832000000    0.8594000000 
C      6.0     -2.3405000000   -0.3644000000   -0.0863000000 
C      6.0     -0.9052000000   -0.4920000000    0.2425000000 
N      7.0     -0.6648000000   -0.7305000000    1.6386000000 
C      6.0     -1.6105000000   -0.2797000000    2.5678000000 
C      6.0      0.0976000000   -0.2589000000   -0.6714000000 
C      6.0      0.0268000000   -1.9852000000    2.0226000000 
C      6.0      1.4512000000    0.0066000000   -0.0987000000 
C      6.0      2.4794000000    0.4942000000   -0.8248000000 
C      6.0      2.2929000000    0.7502000000   -2.2297000000 
C      6.0      1.1113000000    0.4526000000   -2.7848000000 
N      7.0      0.0269000000   -0.1046000000   -2.0949000000 
C      6.0     -1.0768000000   -0.6271000000   -2.9119000000 
O      8.0      3.7290000000    0.8368000000   -0.3798000000 
C      6.0      3.9703000000    0.7993000000    1.0193000000 
H      1.0     -3.5751000000    0.4137000000    2.9730000000 
H      1.0     -4.3094000000    0.0358000000    0.6104000000 
H      1.0     -2.6880000000   -0.4531000000   -1.1003000000 
H      1.0     -1.2655000000   -0.2830000000    3.5991000000 
H      1.0      0.6373000000   -1.8276000000    2.9200000000 
H      1.0      0.6712000000   -2.3816000000    1.2286000000 
H      1.0     -0.7223000000   -2.7585000000    2.2447000000 
H      1.0      1.5672000000   -0.0971000000    0.9704000000 
H      1.0      3.1170000000    1.1475000000   -2.8072000000 
H      1.0      0.9435000000    0.6259000000   -3.8434000000 
H      1.0     -1.4248000000   -1.5916000000   -2.5255000000 
H      1.0     -1.8964000000    0.1008000000   -2.9500000000 
H      1.0     -0.7641000000   -0.8113000000   -3.9508000000 
H      1.0      5.0139000000    1.0809000000    1.1575000000 
H      1.0      3.3346000000    1.5170000000    1.5470000000 
H      1.0      3.8393000000   -0.2116000000    1.4220000000 
 $END


