 $CONTRL SCFTYP=RHF RUNTYP=HESSIAN EXETYP=RUN
 MAXIT=200 ICHARG=0 MULT=1 ISPHER=1
 COORD=CART UNITS=ANGS $END
 $BASIS GBASIS=CCD $END
 $SYSTEM TIMLIM=1300 MWORDS=100 PARALL=.TRUE. $END
 $SCF DIRSCF=.TRUE. $END 
 $STATPT HESS=READ $END

 $DATA
bpy.mol
C1
C      6.0     -0.2604000000    2.8739000000   -0.3824000000 
C      6.0     -0.9491000000    1.9408000000   -1.2554000000 
C      6.0     -0.6810000000    0.6223000000   -1.1678000000 
C      6.0      0.1889000000    0.0701000000   -0.0964000000 
N      7.0      0.8845000000    1.0357000000    0.6917000000 
C      6.0      0.6190000000    2.3949000000    0.5042000000 
C      6.0      0.1294000000   -1.2738000000    0.1594000000 
C      6.0      2.2228000000    0.6915000000    1.2142000000 
C      6.0      0.1243000000   -2.2148000000   -0.9855000000 
C      6.0      0.1048000000   -3.5471000000   -0.7816000000 
C      6.0      0.0219000000   -4.1131000000    0.5457000000 
C      6.0      0.0378000000   -3.2712000000    1.5895000000 
N      7.0      0.1335000000   -1.8789000000    1.4620000000 
C      6.0     -0.1050000000   -1.0587000000    2.6645000000 
N      7.0      0.2757000000   -4.4288000000   -1.9260000000 
O      8.0      0.8997000000   -4.0002000000   -2.9107000000 
O      8.0     -0.1736000000   -5.5798000000   -1.8241000000 
C      6.0     -1.9593000000    2.4506000000   -2.2213000000 
O      8.0     -2.8156000000    1.4971000000   -2.6382000000 
O      8.0     -2.0811000000    3.6146000000   -2.5689000000 
H      1.0     -0.4268000000    3.9362000000   -0.5182000000 
H      1.0     -1.2416000000   -0.0643000000   -1.7914000000 
H      1.0      1.2222000000    3.0500000000    1.1198000000 
H      1.0      2.4304000000   -0.3856000000    1.1918000000 
H      1.0      2.9949000000    1.1726000000    0.5982000000 
H      1.0      2.3459000000    1.0395000000    2.2374000000 
H      1.0      0.2488000000   -1.8043000000   -1.9849000000 
H      1.0      0.0171000000   -5.1843000000    0.6874000000 
H      1.0     -0.0072000000   -3.6571000000    2.6082000000 
H      1.0      0.8547000000   -0.7883000000    3.1191000000 
H      1.0     -0.6803000000   -0.1503000000    2.4492000000 
H      1.0     -0.6917000000   -1.6113000000    3.4107000000 
H      1.0     -3.4847000000    1.9429000000   -3.2002000000 
 $END


