 $CONTRL SCFTYP=RHF RUNTYP=HESSIAN EXETYP=RUN
 MAXIT=200 ICHARG=0 MULT=1 ISPHER=1
 COORD=CART UNITS=ANGS $END
 $BASIS GBASIS=CCD $END
 $SYSTEM TIMLIM=1300 MWORDS=100 PARALL=.TRUE. $END
 $SCF DIRSCF=.TRUE. $END 
 $STATPT HESS=READ $END

 $DATA
bpy.mol
C1
C      6.0      0.7950000000   -3.2198000000   -0.6924000000 
C      6.0      0.2224000000   -2.6538000000    0.5090000000 
C      6.0     -0.4787000000   -1.5240000000    0.3682000000 
C      6.0     -0.2102000000   -0.5878000000   -0.7692000000 
N      7.0      0.5554000000   -1.1279000000   -1.8526000000 
C      6.0      0.8865000000   -2.4893000000   -1.8012000000 
C      6.0     -0.3663000000    0.7479000000   -0.4004000000 
C      6.0      1.4654000000   -0.2746000000   -2.6789000000 
C      6.0     -1.3766000000    1.6206000000   -1.1173000000 
C      6.0     -2.0466000000    2.5945000000   -0.4850000000 
C      6.0     -1.7918000000    2.8558000000    0.9210000000 
C      6.0     -0.7591000000    2.2447000000    1.4825000000 
N      7.0     -0.0407000000    1.2168000000    0.9072000000 
C      6.0      1.2375000000    0.8299000000    1.5204000000 
C      6.0     -3.1303000000    3.5293000000   -1.0265000000 
N      7.0      0.3367000000   -3.2707000000    1.7728000000 
C      6.0      0.9837000000   -4.5429000000    2.0794000000 
H      1.0      1.1500000000   -4.2414000000   -0.7227000000 
H      1.0     -1.1737000000   -1.1285000000    1.1310000000 
H      1.0      1.3210000000   -2.8799000000   -2.7016000000 
H      1.0      1.1576000000    0.7877000000   -2.6494000000 
H      1.0      1.4552000000   -0.6439000000   -3.7306000000 
H      1.0      2.4958000000   -0.3800000000   -2.3219000000 
H      1.0     -1.5726000000    1.4245000000   -2.1601000000 
H      1.0     -2.3092000000    3.6584000000    1.4327000000 
H      1.0     -0.3725000000    2.6199000000    2.4315000000 
H      1.0      1.0838000000    0.5080000000    2.5577000000 
H      1.0      1.7586000000    0.0127000000    0.9871000000 
H      1.0      1.9511000000    1.6693000000    1.5336000000 
H      1.0     -3.4161000000    3.2917000000   -2.0450000000 
H      1.0     -2.8265000000    4.5888000000   -0.9814000000 
H      1.0     -4.0259000000    3.4993000000   -0.4245000000 
H      1.0      0.7006000000   -2.5238000000    2.3959000000 
H      1.0      1.8945000000   -4.6845000000    1.4942000000 
H      1.0      0.3086000000   -5.3850000000    1.8938000000 
H      1.0      1.2499000000   -4.5724000000    3.1425000000 
 $END


