 $CONTRL SCFTYP=RHF RUNTYP=HESSIAN EXETYP=RUN
 MAXIT=200 ICHARG=0 MULT=1 ISPHER=1
 COORD=CART UNITS=ANGS $END
 $BASIS GBASIS=CCD $END
 $SYSTEM TIMLIM=1300 MWORDS=100 PARALL=.TRUE. $END
 $SCF DIRSCF=.TRUE. $END 
 $STATPT HESS=READ $END

 $DATA
bpy.mol
C1
C      6.0     -2.6269000000   -2.5043000000   -1.0280000000 
C      6.0     -2.5333000000   -2.0134000000    0.3153000000 
C      6.0     -1.5397000000   -1.1613000000    0.6128000000 
C      6.0     -0.5749000000   -0.6693000000   -0.4508000000 
N      7.0     -1.2678000000   -0.5790000000   -1.6928000000 
C      6.0     -2.1362000000   -1.7038000000   -1.9943000000 
C      6.0      0.6987000000   -0.5219000000    0.0649000000 
C      6.0     -1.4701000000    0.6956000000   -2.3838000000 
C      6.0      0.8946000000   -1.1253000000    1.4596000000 
C      6.0      1.9445000000   -0.6272000000    2.1611000000 
C      6.0      3.1270000000   -0.7316000000    1.3492000000 
C      6.0      3.1479000000   -0.1509000000    0.0802000000 
N      7.0      1.8993000000    0.0917000000   -0.5403000000 
C      6.0      1.7791000000    1.2929000000   -1.3971000000 
C      6.0      1.7693000000    0.5535000000    3.0372000000 
O      8.0      1.4000000000    1.7137000000    2.4891000000 
O      8.0      2.0049000000    0.5393000000    4.2556000000 
O      8.0     -3.5112000000   -2.4811000000    1.1823000000 
H      1.0     -2.9641000000   -3.5049000000   -1.1754000000 
H      1.0     -1.3559000000   -0.6959000000    1.6350000000 
H      1.0     -2.1028000000   -2.1117000000   -3.0116000000 
H      1.0     -2.4912000000    0.7749000000   -2.8027000000 
H      1.0     -0.7481000000    0.8604000000   -3.1820000000 
H      1.0     -1.4186000000    1.5348000000   -1.6872000000 
H      1.0      1.0544000000   -2.1976000000    1.1095000000 
H      1.0      3.9030000000   -1.3890000000    1.7420000000 
H      1.0      4.0256000000   -0.3391000000   -0.5522000000 
H      1.0      1.8795000000    1.0305000000   -2.4588000000 
H      1.0      2.6025000000    2.0097000000   -1.1481000000 
H      1.0      0.8729000000    1.8440000000   -1.1865000000 
H      1.0      1.6052000000    2.3487000000    3.1859000000 
H      1.0     -3.4155000000   -1.9986000000    2.0119000000 
 $END


