 $CONTRL SCFTYP=RHF RUNTYP=HESSIAN EXETYP=RUN
 MAXIT=200 ICHARG=0 MULT=1 ISPHER=1
 COORD=CART UNITS=ANGS $END
 $BASIS GBASIS=CCD $END
 $SYSTEM TIMLIM=1300 MWORDS=100 PARALL=.TRUE. $END
 $SCF DIRSCF=.TRUE. $END 
 $STATPT HESS=READ $END

 $DATA
bpy.mol
C1
C      6.0     -0.1951000000    1.9632000000   -2.8230000000 
C      6.0     -1.0607000000    1.9641000000   -1.6617000000 
C      6.0     -0.8359000000    1.0791000000   -0.6707000000 
C      6.0      0.2464000000    0.0628000000   -0.7095000000 
N      7.0      1.0834000000    0.1331000000   -1.8769000000 
C      6.0      0.7956000000    1.0660000000   -2.8828000000 
C      6.0      0.3495000000   -0.8542000000    0.3110000000 
C      6.0      2.4409000000   -0.4497000000   -1.8675000000 
C      6.0     -0.1337000000   -0.5183000000    1.6776000000 
C      6.0      0.1539000000   -1.2790000000    2.7546000000 
C      6.0      0.9479000000   -2.4688000000    2.5897000000 
C      6.0      1.2788000000   -2.8552000000    1.3530000000 
N      7.0      0.9547000000   -2.1494000000    0.1867000000 
C      6.0      0.5853000000   -2.9718000000   -0.9935000000 
O      8.0     -0.2045000000   -1.0443000000    4.0639000000 
C      6.0     -1.2041000000   -0.0605000000    4.2970000000 
C      6.0     -2.2062000000    2.9296000000   -1.6469000000 
H      1.0     -0.3666000000    2.6656000000   -3.6279000000 
H      1.0     -1.5536000000    1.0373000000    0.1326000000 
H      1.0      1.4702000000    1.0479000000   -3.7294000000 
H      1.0      3.1817000000    0.2670000000   -2.2580000000 
H      1.0      2.7990000000   -0.7169000000   -0.8650000000 
H      1.0      2.4785000000   -1.3349000000   -2.5119000000 
H      1.0     -0.6534000000    0.4146000000    1.8226000000 
H      1.0      1.1930000000   -3.0716000000    3.4525000000 
H      1.0      1.8089000000   -3.7875000000    1.1762000000 
H      1.0      1.2804000000   -3.8072000000   -1.1200000000 
H      1.0      0.5807000000   -2.4163000000   -1.9295000000 
H      1.0     -0.4241000000   -3.3909000000   -0.8570000000 
H      1.0     -2.0954000000   -0.2727000000    3.7097000000 
H      1.0     -0.8116000000    0.9436000000    4.0804000000 
H      1.0     -1.4676000000   -0.0950000000    5.3597000000 
H      1.0     -2.7060000000    2.9529000000   -0.6734000000 
H      1.0     -1.8760000000    3.9485000000   -1.8763000000 
H      1.0     -2.9470000000    2.6387000000   -2.3863000000 
 $END


