 $CONTRL SCFTYP=RHF RUNTYP=HESSIAN EXETYP=RUN
 MAXIT=200 ICHARG=0 MULT=1 ISPHER=1
 COORD=CART UNITS=ANGS $END
 $BASIS GBASIS=CCD $END
 $SYSTEM TIMLIM=1300 MWORDS=100 PARALL=.TRUE. $END
 $SCF DIRSCF=.TRUE. $END 
 $STATPT HESS=READ $END

 $DATA
bpy.mol
C1
C      6.0     -3.3495000000   -1.3587000000    0.8323000000 
C      6.0     -2.5510000000   -2.2565000000    0.0295000000 
C      6.0     -1.3214000000   -1.9098000000   -0.4014000000 
C      6.0     -0.7164000000   -0.6031000000   -0.0379000000 
N      7.0     -1.6464000000    0.3234000000    0.5426000000 
C      6.0     -2.8773000000   -0.1228000000    1.0283000000 
C      6.0      0.6204000000   -0.3472000000   -0.2428000000 
C      6.0     -1.5299000000    1.7716000000    0.2784000000 
C      6.0      1.4335000000   -1.1598000000   -1.1800000000 
C      6.0      2.6507000000   -0.7697000000   -1.5905000000 
C      6.0      3.2404000000    0.4505000000   -1.1024000000 
C      6.0      2.5882000000    1.1113000000   -0.1375000000 
N      7.0      1.3537000000    0.7143000000    0.3871000000 
C      6.0      1.1058000000    1.0611000000    1.7993000000 
O      8.0      3.3716000000   -1.5145000000   -2.4939000000 
N      7.0     -3.0638000000   -3.5824000000   -0.3313000000 
O      8.0     -4.1926000000   -3.8854000000    0.0833000000 
O      8.0     -2.3543000000   -4.3269000000   -1.0241000000 
H      1.0     -4.3158000000   -1.6658000000    1.2149000000 
H      1.0     -0.7402000000   -2.6173000000   -0.9767000000 
H      1.0     -3.4563000000    0.6262000000    1.5624000000 
H      1.0     -0.7178000000    2.0236000000   -0.4094000000 
H      1.0     -1.3907000000    2.3171000000    1.2170000000 
H      1.0     -2.4494000000    2.1432000000   -0.1908000000 
H      1.0      1.0478000000   -2.0708000000   -1.6144000000 
H      1.0      4.1979000000    0.7971000000   -1.4667000000 
H      1.0      3.0112000000    1.9987000000    0.3245000000 
H      1.0      0.2742000000    0.5096000000    2.2461000000 
H      1.0      1.9896000000    0.8237000000    2.4043000000 
H      1.0      0.9111000000    2.1343000000    1.8947000000 
H      1.0      4.2257000000   -1.0789000000   -2.6452000000 
 $END


