 $CONTRL SCFTYP=RHF RUNTYP=HESSIAN EXETYP=RUN
 MAXIT=200 ICHARG=0 MULT=1 ISPHER=1
 COORD=CART UNITS=ANGS $END
 $BASIS GBASIS=CCD $END
 $SYSTEM TIMLIM=1300 MWORDS=100 PARALL=.TRUE. $END
 $SCF DIRSCF=.TRUE. $END 
 $STATPT HESS=READ $END

 $DATA
bpy.mol
C1
C      6.0     -1.0476000000   -0.8340000000   -3.4958000000 
C      6.0     -1.9357000000   -0.0394000000   -2.5757000000 
C      6.0     -1.4985000000    0.4897000000   -1.4191000000 
C      6.0     -0.0994000000    0.2115000000   -0.9813000000 
N      7.0      0.7636000000   -0.1234000000   -2.1223000000 
C      6.0      0.2636000000   -0.6410000000   -3.3190000000 
C      6.0      0.0410000000   -0.3536000000    0.2984000000 
C      6.0      2.2454000000    0.0151000000   -2.0542000000 
C      6.0     -1.0470000000   -0.4869000000    1.3553000000 
C      6.0     -0.8010000000   -0.7831000000    2.6080000000 
C      6.0      0.2462000000   -1.9391000000    2.4842000000 
C      6.0      1.2809000000   -1.8735000000    1.6237000000 
N      7.0      1.3422000000   -0.7736000000    0.7755000000 
C      6.0      2.2543000000    0.2850000000    1.2936000000 
C      6.0     -1.0963000000   -0.9410000000    4.2518000000 
O      8.0     -0.9127000000   -2.1580000000    4.8076000000 
O      8.0     -1.3403000000    0.0799000000    4.8674000000 
N      7.0     -3.3273000000    0.0628000000   -3.0441000000 
O      8.0     -3.4750000000   -0.4860000000   -4.1373000000 
O      8.0     -4.2629000000    0.5132000000   -2.3303000000 
H      1.0     -1.4010000000   -1.9156000000   -3.3347000000 
H      1.0     -2.1634000000    1.1330000000   -0.8487000000 
H      1.0      0.7874000000   -0.2389000000   -4.2665000000 
H      1.0      2.6892000000   -0.6082000000   -2.8180000000 
H      1.0      2.5889000000    1.0656000000   -2.1522000000 
H      1.0      2.6298000000   -0.4167000000   -1.1522000000 
H      1.0     -2.0089000000   -0.1426000000    1.1284000000 
H      1.0      0.0622000000   -2.8505000000    3.0864000000 
H      1.0      2.0975000000   -2.5958000000    1.5685000000 
H      1.0      3.1775000000    0.2669000000    0.6927000000 
H      1.0      2.5968000000    0.0790000000    2.3045000000 
H      1.0      1.8501000000    1.2826000000    1.1799000000 
H      1.0     -0.6985000000   -1.9625000000    5.7255000000 
 $END


