 $CONTRL COORD=CART UNITS=ANGS $END

 $DATA
bpy.mol
C1
C      6.0     -3.7952000000   -0.0649000000   -1.1962000000 
C      6.0     -3.2588000000    0.7888000000   -0.1658000000 
C      6.0     -1.9572000000    0.7896000000    0.1158000000 
C      6.0     -0.9952000000   -0.1166000000   -0.5529000000 
N      7.0     -1.5868000000   -0.9959000000   -1.5159000000 
C      6.0     -2.9528000000   -0.9108000000   -1.7944000000 
C      6.0      0.3461000000   -0.0515000000   -0.2561000000 
C      6.0     -0.9149000000   -2.2760000000   -1.8661000000 
C      6.0      0.7875000000    0.2802000000    1.1142000000 
C      6.0      1.9314000000   -0.2187000000    1.6423000000 
C      6.0      2.8623000000   -0.8699000000    0.7262000000 
C      6.0      2.5871000000   -0.8855000000   -0.5805000000 
N      7.0      1.3765000000   -0.4701000000   -1.1370000000 
C      6.0      1.3695000000    0.0536000000   -2.5063000000 
N      7.0      2.2127000000   -0.1600000000    3.0046000000 
C      6.0      3.4188000000   -0.6987000000    3.6757000000 
C      6.0     -4.1205000000    1.7506000000    0.5675000000 
O      8.0     -5.3482000000    1.7244000000    0.5384000000 
H      1.0     -4.8569000000   -0.0431000000   -1.4339000000 
H      1.0     -1.5773000000    1.4868000000    0.8471000000 
H      1.0     -3.3184000000   -1.6231000000   -2.5206000000 
H      1.0     -0.0654000000   -2.4940000000   -1.2228000000 
H      1.0     -0.6055000000   -2.2681000000   -2.9303000000 
H      1.0     -1.6073000000   -3.1280000000   -1.7193000000 
H      1.0      0.1130000000    0.8204000000    1.7628000000 
H      1.0      3.8161000000   -1.2049000000    1.0908000000 
H      1.0      3.3306000000   -1.2142000000   -1.2997000000 
H      1.0      0.3868000000   -0.0103000000   -2.9970000000 
H      1.0      1.6710000000    1.1059000000   -2.5213000000 
H      1.0      2.0880000000   -0.5107000000   -3.1316000000 
H      1.0      1.3423000000   -0.4139000000    3.5121000000 
H      1.0      3.5977000000   -1.7497000000    3.3658000000 
H      1.0      3.2549000000   -0.6914000000    4.7420000000 
H      1.0      4.2955000000   -0.0895000000    3.4515000000 
H      1.0     -3.5897000000    2.5003000000    1.1909000000 
 $END


