 $CONTRL SCFTYP=RHF RUNTYP=HESSIAN EXETYP=RUN
 MAXIT=200 ICHARG=0 MULT=1 ISPHER=1
 COORD=CART UNITS=ANGS $END
 $BASIS GBASIS=CCD $END
 $SYSTEM TIMLIM=1300 MWORDS=100 PARALL=.TRUE. $END
 $SCF DIRSCF=.TRUE. $END 
 $STATPT HESS=READ $END

 $DATA
bpy.mol
C1
C      6.0     -3.2875000000   -1.0407000000    1.3202000000 
C      6.0     -2.3891000000   -2.1480000000    1.0939000000 
C      6.0     -1.1657000000   -1.9388000000    0.5700000000 
C      6.0     -0.6704000000   -0.5743000000    0.2515000000 
N      7.0     -1.6845000000    0.4383000000    0.2932000000 
C      6.0     -2.9125000000    0.1707000000    0.8990000000 
C      6.0      0.6559000000   -0.3444000000   -0.0378000000 
C      6.0     -1.6383000000    1.6115000000   -0.6001000000 
C      6.0      1.5564000000   -1.4381000000   -0.4850000000 
C      6.0      2.7573000000   -1.1814000000   -1.0371000000 
C      6.0      3.2470000000    0.1684000000   -1.1694000000 
C      6.0      2.5170000000    1.1490000000   -0.6285000000 
N      7.0      1.2879000000    0.9451000000    0.0105000000 
C      6.0      0.9861000000    1.8682000000    1.1264000000 
C      6.0      3.5397000000   -2.3169000000   -1.5625000000 
O      8.0      3.1533000000   -2.6426000000   -2.8145000000 
O      8.0      4.4259000000   -2.8844000000   -0.9507000000 
C      6.0     -2.7999000000   -3.5312000000    1.4398000000 
O      8.0     -3.8599000000   -3.7906000000    1.9980000000 
H      1.0     -4.2550000000   -1.2150000000    1.7775000000 
H      1.0     -0.5055000000   -2.7851000000    0.4445000000 
H      1.0     -3.5782000000    1.0271000000    0.9854000000 
H      1.0     -1.6602000000    2.5353000000   -0.0102000000 
H      1.0     -2.5129000000    1.6106000000   -1.2614000000 
H      1.0     -0.7652000000    1.6340000000   -1.2576000000 
H      1.0      1.2358000000   -2.4698000000   -0.4385000000 
H      1.0      4.2062000000    0.3585000000   -1.6349000000 
H      1.0      2.8664000000    2.1795000000   -0.6186000000 
H      1.0      0.0502000000    1.6497000000    1.6479000000 
H      1.0      0.9415000000    2.9004000000    0.7673000000 
H      1.0      1.7839000000    1.8060000000    1.8806000000 
H      1.0      2.4459000000   -2.0622000000   -3.1605000000 
H      1.0     -2.0843000000   -4.3343000000    1.1614000000 
 $END


