 $CONTRL COORD=CART UNITS=ANGS $END

 $DATA
bpy.mol
C1
C      6.0     -1.1103000000   -0.1629000000    3.3048000000 
C      6.0     -0.7315000000   -1.4521000000    2.7961000000 
C      6.0     -0.2359000000   -1.5865000000    1.5529000000 
C      6.0     -0.0939000000   -0.4253000000    0.6355000000 
N      7.0     -0.2830000000    0.8467000000    1.2738000000 
C      6.0     -0.8557000000    0.9100000000    2.5471000000 
C      6.0      0.1793000000   -0.5963000000   -0.7024000000 
C      6.0      0.4769000000    2.0302000000    0.8321000000 
C      6.0      0.7751000000   -1.8540000000   -1.2194000000 
C      6.0      1.2853000000   -1.9492000000   -2.4604000000 
C      6.0      1.2359000000   -0.8242000000   -3.3584000000 
C      6.0      0.5671000000    0.2661000000   -2.9642000000 
N      7.0     -0.0445000000    0.3979000000   -1.7132000000 
C      6.0     -1.2483000000    1.2494000000   -1.6659000000 
O      8.0     -0.9283000000   -2.4926000000    3.6684000000 
H      1.0     -1.5411000000   -0.0817000000    4.2951000000 
H      1.0     -0.0052000000   -2.5806000000    1.2013000000 
H      1.0     -1.0557000000    1.9147000000    2.9083000000 
H      1.0      1.0401000000    2.4556000000    1.6721000000 
H      1.0      1.2180000000    1.8048000000    0.0598000000 
H      1.0     -0.2052000000    2.8023000000    0.4633000000 
H      1.0      0.8775000000   -2.7204000000   -0.5816000000 
H      1.0      1.7488000000   -2.8653000000   -2.8082000000 
H      1.0      1.6869000000   -0.8986000000   -4.3397000000 
H      1.0      0.4326000000    1.1178000000   -3.6252000000 
H      1.0     -0.9702000000    2.3024000000   -1.7849000000 
H      1.0     -1.9248000000    0.9835000000   -2.4876000000 
H      1.0     -1.8288000000    1.1408000000   -0.7447000000 
H      1.0     -0.6090000000   -3.3048000000    3.2451000000 
 $END


