 $CONTRL COORD=CART UNITS=ANGS $END

 $DATA
bpy.mol
C1
C      6.0      1.1527000000   -3.1708000000    1.1697000000 
C      6.0      0.5995000000   -2.2540000000    2.1317000000 
C      6.0      0.0887000000   -1.0656000000    1.7657000000 
C      6.0      0.0725000000   -0.6159000000    0.3472000000 
N      7.0      0.7596000000   -1.5093000000   -0.5496000000 
C      6.0      1.2084000000   -2.7570000000   -0.1023000000 
C      6.0     -0.6250000000    0.5214000000    0.0072000000 
C      6.0      0.9590000000   -1.1967000000   -1.9720000000 
C      6.0     -1.5693000000    1.1675000000    0.9484000000 
C      6.0     -2.7365000000    1.6578000000    0.4908000000 
C      6.0     -3.0230000000    1.6206000000   -0.9287000000 
C      6.0     -1.9921000000    1.4133000000   -1.7638000000 
N      7.0     -0.7065000000    1.0854000000   -1.3037000000 
C      6.0      0.3714000000    2.0123000000   -1.6989000000 
N      7.0      0.5687000000   -2.5961000000    3.5489000000 
O      8.0      0.6010000000   -1.6728000000    4.3761000000 
O      8.0      0.5144000000   -3.8031000000    3.8394000000 
H      1.0      1.5137000000   -4.1458000000    1.4752000000 
H      1.0     -0.3090000000   -0.4070000000    2.5267000000 
H      1.0      1.6258000000   -3.4048000000   -0.8678000000 
H      1.0      1.4749000000   -2.0010000000   -2.5043000000 
H      1.0      1.5988000000   -0.3116000000   -2.0670000000 
H      1.0      0.0101000000   -1.0468000000   -2.5069000000 
H      1.0     -1.3467000000    1.2414000000    2.0058000000 
H      1.0     -3.4613000000    2.1117000000    1.1559000000 
H      1.0     -4.0264000000    1.8300000000   -1.2744000000 
H      1.0     -2.0808000000    1.4652000000   -2.8432000000 
H      1.0      0.0481000000    3.0599000000   -1.5863000000 
H      1.0      0.6515000000    1.8461000000   -2.7476000000 
H      1.0      1.2587000000    1.8906000000   -1.0722000000 
 $END


