 $CONTRL COORD=CART UNITS=ANGS $END

 $DATA
bpy.mol
C1
C      6.0     -2.3822000000   -0.9155000000   -2.3733000000 
C      6.0     -0.9962000000   -1.3381000000   -2.3609000000 
C      6.0     -0.3019000000   -1.2565000000   -1.2514000000 
C      6.0     -0.9455000000   -0.9571000000    0.1351000000 
N      7.0     -2.2918000000   -0.5077000000    0.0074000000 
C      6.0     -3.0256000000   -0.6398000000   -1.2342000000 
C      6.0      0.0419000000   -1.0197000000    1.1657000000 
C      6.0     -2.5652000000    0.9048000000    0.5724000000 
C      6.0      1.3481000000   -1.7281000000    0.7304000000 
C      6.0      2.4669000000   -0.9874000000    0.7973000000 
C      6.0      2.5269000000   -0.0868000000    1.9295000000 
C      6.0      1.4961000000    0.0468000000    2.7858000000 
N      7.0      0.2056000000   -0.4919000000    2.5045000000 
C      6.0     -0.8502000000    0.0467000000    3.3883000000 
C      6.0      3.5029000000   -0.8243000000   -0.2700000000 
O      8.0      3.0450000000    0.0672000000   -1.1872000000 
O      8.0      4.6899000000   -1.1501000000   -0.2663000000 
C      6.0     -0.1076000000   -1.5152000000   -3.5667000000 
O      8.0     -0.0476000000   -2.8080000000   -4.0341000000 
O      8.0      0.6077000000   -0.6674000000   -4.0715000000 
H      1.0     -2.6793000000   -0.5336000000   -3.4077000000 
H      1.0      0.7483000000   -1.5544000000   -1.3778000000 
H      1.0     -4.1331000000   -0.3309000000   -1.3228000000 
H      1.0     -2.7488000000    0.8394000000    1.6438000000 
H      1.0     -1.7340000000    1.6061000000    0.3572000000 
H      1.0     -3.4572000000    1.3619000000    0.1999000000 
H      1.0      1.1839000000   -2.5875000000    0.0995000000 
H      1.0      3.3995000000    0.4957000000    2.1157000000 
H      1.0      1.7085000000    0.6227000000    3.6730000000 
H      1.0     -0.6738000000    1.1707000000    3.5207000000 
H      1.0     -1.8692000000   -0.1744000000    3.0707000000 
H      1.0     -0.6782000000   -0.3801000000    4.3713000000 
H      1.0      3.8143000000    0.4279000000   -1.6823000000 
H      1.0      0.7018000000   -2.5672000000   -4.6620000000 
 $END


