 $CONTRL COORD=CART UNITS=ANGS $END

 $DATA
bpy.mol
C1
C      6.0     -0.0385000000    1.5516000000   -2.8747000000 
C      6.0      0.1249000000    0.0958000000   -3.0653000000 
C      6.0      1.0873000000   -0.2980000000   -2.0703000000 
C      6.0      0.5237000000   -0.0989000000   -0.4507000000 
N      7.0     -0.0233000000    1.4279000000   -0.2667000000 
C      6.0     -0.2438000000    2.4083000000   -1.6124000000 
C      6.0      0.2758000000   -1.1357000000    0.5576000000 
C      6.0     -0.5752000000    1.7630000000    1.2623000000 
C      6.0     -1.0845000000   -1.9872000000    0.4652000000 
C      6.0     -1.0344000000   -2.7285000000    1.5494000000 
C      6.0     -0.4741000000   -1.8965000000    2.9774000000 
C      6.0      0.3152000000   -0.7582000000    3.0043000000 
N      7.0      1.1339000000   -0.9948000000    1.8061000000 
C      6.0      2.4188000000   -1.6077000000    1.7553000000 
Cl    17.0     -0.1944000000   -4.5212000000    1.7199000000 
O      8.0     -0.9931000000   -0.8753000000   -3.1457000000 
C      6.0     -2.6289000000   -0.1914000000   -3.0949000000 
H      1.0      1.3543000000    1.7198000000   -3.2690000000 
H      1.0      1.4649000000   -1.1992000000   -2.3892000000 
H      1.0     -1.2646000000    2.8772000000   -1.4227000000 
H      1.0     -0.8052000000    2.7350000000    1.2458000000 
H      1.0      0.5104000000    2.0160000000    1.3182000000 
H      1.0     -0.1874000000    1.7119000000    2.3573000000 
H      1.0     -2.2945000000   -1.6866000000    0.4684000000 
H      1.0     -1.7107000000   -1.6499000000    3.1653000000 
H      1.0      0.7588000000   -0.6911000000    4.3370000000 
H      1.0      2.4075000000   -2.7613000000    1.1767000000 
H      1.0      2.9641000000   -1.1298000000    1.1361000000 
H      1.0      3.1397000000   -1.7765000000    2.7229000000 
H      1.0     -2.4725000000   -0.0186000000   -4.0886000000 
H      1.0     -2.3917000000    0.1157000000   -2.0701000000 
H      1.0     -2.9500000000    1.1540000000   -3.2051000000 
 $END


