 $CONTRL COORD=CART UNITS=ANGS $END

 $DATA
bpy.mol
C1
C      6.0     -3.2801000000    0.9255000000    1.3785000000 
C      6.0     -2.1371000000    1.6697000000    1.8262000000 
C      6.0     -0.8918000000    1.2979000000    1.4795000000 
C      6.0     -0.6369000000    0.1174000000    0.6141000000 
N      7.0     -1.8010000000   -0.6579000000    0.3017000000 
C      6.0     -3.0670000000   -0.1841000000    0.6602000000 
C      6.0      0.6305000000   -0.0692000000    0.1218000000 
C      6.0     -1.7022000000   -2.0992000000    0.0099000000 
C      6.0      0.7839000000   -0.7302000000   -1.1995000000 
C      6.0      1.9624000000   -0.7989000000   -1.8506000000 
C      6.0      3.1319000000   -0.1980000000   -1.2583000000 
C      6.0      3.0288000000    0.3575000000   -0.0461000000 
N      7.0      1.8480000000    0.4046000000    0.7051000000 
C      6.0      2.0379000000    0.3584000000    2.1725000000 
O      8.0      2.2121000000   -1.3563000000   -3.0800000000 
C      6.0      1.1531000000   -2.0673000000   -3.7105000000 
O      8.0     -2.4351000000    2.7720000000    2.5850000000 
H      1.0     -4.2778000000    1.2560000000    1.6398000000 
H      1.0     -0.0524000000    1.9215000000    1.7588000000 
H      1.0     -3.8948000000   -0.8042000000    0.3310000000 
H      1.0     -2.3998000000   -2.6699000000    0.6374000000 
H      1.0     -1.9595000000   -2.2938000000   -1.0376000000 
H      1.0     -0.7051000000   -2.5054000000    0.2182000000 
H      1.0     -0.1159000000   -1.0719000000   -1.6860000000 
H      1.0      4.0743000000   -0.2309000000   -1.7902000000 
H      1.0      3.8997000000    0.7726000000    0.4536000000 
H      1.0      2.6798000000   -0.4985000000    2.4262000000 
H      1.0      2.5289000000    1.2772000000    2.5199000000 
H      1.0      1.1113000000    0.2205000000    2.7376000000 
H      1.0      1.5305000000   -2.4464000000   -4.6697000000 
H      1.0      0.8426000000   -2.9222000000   -3.1016000000 
H      1.0      0.3067000000   -1.4112000000   -3.9253000000 
H      1.0     -1.6039000000    3.2345000000    2.7786000000 
 $END


