 $CONTRL COORD=CART UNITS=ANGS $END

 $DATA
bpy.mol
C1
C      6.0     -2.7363000000   -1.0310000000    2.3795000000 
C      6.0     -1.4674000000   -0.7697000000    3.0077000000 
C      6.0     -0.3712000000   -0.5165000000    2.2717000000 
C      6.0     -0.4215000000   -0.4515000000    0.7896000000 
N      7.0     -1.6428000000   -0.9591000000    0.2305000000 
C      6.0     -2.7630000000   -1.1376000000    1.0459000000 
C      6.0      0.6245000000    0.0561000000    0.0546000000 
C      6.0     -1.6504000000   -1.6284000000   -1.0834000000 
C      6.0      1.9817000000    0.2048000000    0.6298000000 
C      6.0      3.0626000000    0.4001000000   -0.1421000000 
C      6.0      2.9346000000    0.5273000000   -1.5708000000 
C      6.0      1.6970000000    0.5859000000   -2.0804000000 
N      7.0      0.5301000000    0.4614000000   -1.3185000000 
C      6.0     -0.6109000000    1.2945000000   -1.7504000000 
O      8.0      4.3243000000    0.4807000000    0.4001000000 
Cl    17.0     -1.3968000000   -0.7855000000    4.7307000000 
H      1.0     -3.6219000000   -1.1841000000    2.9832000000 
H      1.0      0.5496000000   -0.3067000000    2.7951000000 
H      1.0     -3.6742000000   -1.4038000000    0.5207000000 
H      1.0     -2.2132000000   -2.5688000000   -1.0302000000 
H      1.0     -2.1379000000   -0.9930000000   -1.8289000000 
H      1.0     -0.6464000000   -1.8953000000   -1.4287000000 
H      1.0      2.1514000000    0.1035000000    1.6913000000 
H      1.0      3.8050000000    0.6364000000   -2.2055000000 
H      1.0      1.5280000000    0.7630000000   -3.1376000000 
H      1.0     -0.3219000000    2.3526000000   -1.7406000000 
H      1.0     -0.9013000000    1.0319000000   -2.7740000000 
H      1.0     -1.4943000000    1.2030000000   -1.1151000000 
H      1.0      4.9682000000    0.5285000000   -0.3244000000 
 $END


