 $CONTRL COORD=CART UNITS=ANGS $END

 $DATA
bpy.mol
C1
C      6.0     -1.0574000000    0.9001000000    3.0418000000 
C      6.0      0.3132000000    0.6477000000    2.6356000000 
C      6.0      0.5875000000   -0.1392000000    1.5725000000 
C      6.0     -0.5124000000   -0.6080000000    0.6933000000 
N      7.0     -1.7880000000   -0.6561000000    1.3443000000 
C      6.0     -2.0256000000    0.2215000000    2.4090000000 
C      6.0     -0.3100000000   -0.8113000000   -0.6561000000 
C      6.0     -2.3843000000   -2.0014000000    1.4812000000 
C      6.0      1.0700000000   -0.9924000000   -1.1784000000 
C      6.0      1.3985000000   -0.9362000000   -2.4856000000 
C      6.0      0.3421000000   -0.6674000000   -3.4390000000 
C      6.0     -0.9259000000   -0.6275000000   -3.0152000000 
N      7.0     -1.3267000000   -0.7777000000   -1.6794000000 
C      6.0     -2.7400000000   -0.4947000000   -1.3760000000 
N      7.0      2.6708000000   -1.1200000000   -3.0170000000 
C      6.0      3.7699000000   -1.7421000000   -2.2915000000 
O      8.0      1.3293000000    1.2223000000    3.3816000000 
C      6.0      1.3504000000    2.6430000000    3.1734000000 
H      1.0     -1.2919000000    1.5615000000    3.8725000000 
H      1.0      1.6233000000   -0.2786000000    1.2945000000 
H      1.0     -3.0655000000    0.2951000000    2.7118000000 
H      1.0     -1.9169000000   -2.5500000000    2.3102000000 
H      1.0     -3.4654000000   -1.9374000000    1.6871000000 
H      1.0     -2.2443000000   -2.6063000000    0.5778000000 
H      1.0      1.8651000000   -1.2051000000   -0.4739000000 
H      1.0      0.5845000000   -0.5283000000   -4.4896000000 
H      1.0     -1.7301000000   -0.4588000000   -3.7262000000 
H      1.0     -3.2285000000   -1.3802000000   -0.9643000000 
H      1.0     -2.8475000000    0.3533000000   -0.6936000000 
H      1.0     -3.3123000000   -0.2374000000   -2.2833000000 
H      1.0      2.9760000000   -0.2563000000   -3.4724000000 
H      1.0      4.6479000000   -1.7958000000   -2.9416000000 
H      1.0      4.0262000000   -1.1842000000   -1.3768000000 
H      1.0      3.4899000000   -2.7707000000   -2.0142000000 
H      1.0      0.5415000000    3.1261000000    3.7267000000 
H      1.0      1.2848000000    2.8970000000    2.1051000000 
H      1.0      2.3020000000    3.0363000000    3.5560000000 
 $END


