 $CONTRL SCFTYP=RHF RUNTYP=HESSIAN EXETYP=RUN
 MAXIT=200 ICHARG=0 MULT=1 ISPHER=1
 COORD=CART UNITS=ANGS $END
 $BASIS GBASIS=CCD $END
 $SYSTEM TIMLIM=1300 MWORDS=100 PARALL=.TRUE. $END
 $SCF DIRSCF=.TRUE. $END 
 $STATPT HESS=READ $END

 $DATA
bpy.mol
C1
C      6.0      2.6666000000   -1.1677000000   -2.0486000000 
C      6.0      1.3915000000   -1.4320000000   -2.6629000000 
C      6.0      0.2484000000   -1.0431000000   -2.0720000000 
C      6.0      0.2360000000   -0.3627000000   -0.7531000000 
N      7.0      1.5326000000    0.0716000000   -0.3152000000 
C      6.0      2.6822000000   -0.4241000000   -0.9363000000 
C      6.0     -0.9301000000   -0.1974000000   -0.0408000000 
C      6.0      1.6875000000    1.3198000000    0.4550000000 
C      6.0     -2.2610000000   -0.3022000000   -0.6918000000 
C      6.0     -3.3905000000    0.1069000000   -0.0871000000 
C      6.0     -3.3501000000    0.6368000000    1.2513000000 
C      6.0     -2.1868000000    0.5902000000    1.9111000000 
N      7.0     -0.9955000000    0.1062000000    1.3608000000 
C      6.0     -0.0432000000   -0.5062000000    2.3047000000 
Cl    17.0      1.3744000000   -2.2708000000   -4.1694000000 
H      1.0      3.5791000000   -1.5246000000   -2.5093000000 
H      1.0     -0.6800000000   -1.2963000000   -2.5628000000 
H      1.0      3.6162000000   -0.1332000000   -0.4642000000 
H      1.0      2.1550000000    1.1110000000    1.4225000000 
H      1.0      2.3379000000    2.0181000000   -0.0865000000 
H      1.0      0.7456000000    1.8509000000    0.6179000000 
H      1.0     -2.3536000000   -0.6620000000   -1.7064000000 
H      1.0     -4.3495000000    0.0489000000   -0.5898000000 
H      1.0     -4.2584000000    1.0060000000    1.7107000000 
H      1.0     -2.1122000000    0.9056000000    2.9475000000 
H      1.0      0.4480000000    0.2699000000    2.9007000000 
H      1.0      0.7223000000   -1.1180000000    1.8197000000 
H      1.0     -0.5747000000   -1.1738000000    2.9942000000 
 $END


