 $CONTRL SCFTYP=RHF RUNTYP=HESSIAN EXETYP=RUN
 MAXIT=200 ICHARG=0 MULT=1 ISPHER=1
 COORD=CART UNITS=ANGS $END
 $BASIS GBASIS=CCD $END
 $SYSTEM TIMLIM=1300 MWORDS=100 PARALL=.TRUE. $END
 $SCF DIRSCF=.TRUE. $END 
 $STATPT HESS=READ $END

 $DATA
bpy.mol
C1
C      6.0     -2.4453000000   -2.1108000000    0.9774000000 
C      6.0     -1.3038000000   -1.7064000000    1.8439000000 
C      6.0     -0.3698000000   -0.9029000000    1.3129000000 
C      6.0     -0.5450000000   -0.4661000000   -0.0968000000 
N      7.0     -1.1353000000   -1.4700000000   -0.9258000000 
C      6.0     -1.9567000000   -2.4182000000   -0.2425000000 
C      6.0      0.1563000000    0.5775000000   -0.6135000000 
C      6.0     -0.3498000000   -1.9112000000   -2.1080000000 
C      6.0      1.5513000000    0.6413000000   -0.1954000000 
C      6.0      2.2521000000    1.7741000000   -0.2030000000 
C      6.0      1.6768000000    2.9638000000   -0.7956000000 
C      6.0      0.4121000000    2.9038000000   -1.2816000000 
N      7.0     -0.3552000000    1.7154000000   -1.3108000000 
C      6.0     -1.7551000000    1.7577000000   -1.7689000000 
C      6.0      3.5274000000    1.8695000000    0.5965000000 
O      8.0     -1.0811000000   -2.3879000000    3.0403000000 
C      6.0     -1.4271000000   -3.7852000000    2.9839000000 
H      1.0     -3.1533000000   -1.2660000000    1.0486000000 
H      1.0      0.4859000000   -0.6789000000    1.9144000000 
H      1.0     -1.4190000000   -3.3663000000   -0.2859000000 
H      1.0     -0.0653000000   -1.0828000000   -2.7645000000 
H      1.0     -0.9192000000   -2.5915000000   -2.7202000000 
H      1.0      0.5748000000   -2.4183000000   -1.8057000000 
H      1.0      1.9356000000   -0.2490000000    0.2764000000 
H      1.0      2.2567000000    3.8814000000   -0.8342000000 
H      1.0     -0.0489000000    3.7959000000   -1.7086000000 
H      1.0     -2.2524000000    2.6404000000   -1.3348000000 
H      1.0     -1.7869000000    1.8248000000   -2.8706000000 
H      1.0     -2.3306000000    0.8725000000   -1.4883000000 
H      1.0      3.2316000000    1.8036000000    1.6561000000 
H      1.0      4.2195000000    1.0499000000    0.3636000000 
H      1.0      4.0639000000    2.7977000000    0.3927000000 
H      1.0     -1.2797000000   -4.2093000000    1.9827000000 
H      1.0     -0.7950000000   -4.3698000000    3.6566000000 
H      1.0     -2.4570000000   -3.9088000000    3.3088000000 
 $END


