 $CONTRL SCFTYP=RHF RUNTYP=HESSIAN EXETYP=RUN
 MAXIT=200 ICHARG=0 MULT=1 ISPHER=1
 COORD=CART UNITS=ANGS $END
 $BASIS GBASIS=CCD $END
 $SYSTEM TIMLIM=1300 MWORDS=100 PARALL=.TRUE. $END
 $SCF DIRSCF=.TRUE. $END 
 $STATPT HESS=READ $END

 $DATA
bpy.mol
C1
C      6.0     -1.1945000000    1.2261000000    0.7166000000 
C      6.0     -1.6532000000    0.3490000000   -0.9732000000 
C      6.0     -0.8885000000   -1.1117000000   -1.3806000000 
C      6.0      0.3561000000   -2.0841000000   -0.2478000000 
N      7.0      0.9099000000   -1.0703000000    0.6062000000 
C      6.0      0.0920000000    0.4718000000    1.5714000000 
C      6.0      1.5530000000   -1.6233000000    0.8901000000 
C      6.0      1.9920000000   -1.0065000000   -1.0722000000 
C      6.0      0.6060000000   -2.1358000000    2.3087000000 
C      6.0     -0.7068000000   -1.7763000000    2.0603000000 
C      6.0     -0.9809000000   -0.7632000000    0.6231000000 
C      6.0      0.2901000000    0.3270000000   -0.2732000000 
N      7.0      1.9678000000    0.2319000000    0.5185000000 
C      6.0      2.6395000000    1.1208000000    1.4539000000 
N      7.0     -2.6029000000    1.0013000000   -1.7361000000 
C      6.0     -3.5125000000    0.3198000000   -2.6306000000 
H      1.0     -1.8535000000    1.9994000000    1.0842000000 
H      1.0     -1.1317000000   -1.6664000000   -2.2819000000 
H      1.0      0.4917000000    0.5462000000    2.5731000000 
H      1.0      2.6313000000   -0.1158000000   -1.2582000000 
H      1.0      2.6682000000   -1.8876000000   -1.0353000000 
H      1.0      1.3589000000   -1.1148000000   -1.9701000000 
H      1.0      1.0750000000   -2.7216000000    3.0756000000 
H      1.0     -1.5764000000   -1.9871000000    2.6653000000 
H      1.0     -2.0884000000   -0.9000000000    0.5390000000 
H      1.0      0.3939000000    1.0988000000   -1.0486000000 
H      1.0      2.2257000000    2.1309000000    1.4091000000 
H      1.0      3.6981000000    1.1811000000    1.1734000000 
H      1.0      2.6117000000    0.7464000000    2.4807000000 
H      1.0     -3.0252000000    1.7784000000   -1.2350000000 
H      1.0     -4.3807000000   -0.0488000000   -2.0698000000 
H      1.0     -3.8737000000    1.0140000000   -3.3983000000 
H      1.0     -3.0418000000   -0.5310000000   -3.1385000000 
 $END


