 $CONTRL SCFTYP=RHF RUNTYP=HESSIAN EXETYP=RUN
 MAXIT=200 ICHARG=0 MULT=1 ISPHER=1
 COORD=CART UNITS=ANGS $END
 $BASIS GBASIS=CCD $END
 $SYSTEM TIMLIM=1300 MWORDS=100 PARALL=.TRUE. $END
 $SCF DIRSCF=.TRUE. $END 
 $STATPT HESS=READ $END

 $DATA
bpy.mol
C1
C      6.0     -2.9564000000    1.0983000000    0.1809000000 
C      6.0     -2.4441000000    0.6508000000   -1.0971000000 
C      6.0     -1.1912000000    0.1560000000   -1.1727000000 
C      6.0     -0.3128000000    0.0104000000    0.0171000000 
N      7.0     -0.7911000000    0.7048000000    1.1764000000 
C      6.0     -2.1212000000    1.1294000000    1.2258000000 
C      6.0      0.8365000000   -0.7469000000   -0.0174000000 
C      6.0      0.1489000000    1.4143000000    2.0638000000 
C      6.0      1.4807000000   -1.1257000000   -1.3006000000 
C      6.0      2.7263000000   -1.6406000000   -1.3349000000 
C      6.0      3.4768000000   -1.8808000000   -0.1239000000 
C      6.0      2.8448000000   -1.6911000000    1.0395000000 
N      7.0      1.5292000000   -1.2344000000    1.1419000000 
C      6.0      0.7836000000   -1.6357000000    2.3517000000 
N      7.0      3.3121000000   -1.9478000000   -2.6439000000 
O      8.0      2.6367000000   -1.7363000000   -3.6624000000 
O      8.0      4.4636000000   -2.4078000000   -2.6560000000 
C      6.0     -3.3583000000    0.7649000000   -2.2784000000 
H      1.0     -3.9782000000    1.4493000000    0.2636000000 
H      1.0     -0.8559000000   -0.1908000000   -2.1399000000 
H      1.0     -2.4343000000    1.5292000000    2.1858000000 
H      1.0     -0.0339000000    1.1347000000    3.1067000000 
H      1.0      1.2002000000    1.2266000000    1.8293000000 
H      1.0      0.0034000000    2.4979000000    1.9739000000 
H      1.0      0.9600000000   -0.9339000000   -2.2280000000 
H      1.0      4.4956000000   -2.2479000000   -0.1646000000 
H      1.0      3.3249000000   -1.9177000000    1.9880000000 
H      1.0      1.0707000000   -1.0064000000    3.1998000000 
H      1.0      1.0207000000   -2.6747000000    2.6128000000 
H      1.0     -0.3019000000   -1.5990000000    2.2232000000 
H      1.0     -3.6471000000    1.8087000000   -2.4420000000 
H      1.0     -4.2669000000    0.1738000000   -2.1205000000 
H      1.0     -2.8849000000    0.4047000000   -3.1980000000 
 $END


