 $CONTRL COORD=CART UNITS=ANGS $END

 $DATA
bpy.mol
C1
C      6.0      1.0482000000   -1.8230000000   -2.9362000000 
C      6.0      1.8256000000   -0.7458000000   -2.3602000000 
C      6.0      1.2899000000   -0.0189000000   -1.3688000000 
C      6.0     -0.0433000000   -0.2874000000   -0.7789000000 
N      7.0     -0.8415000000   -1.2249000000   -1.5280000000 
C      6.0     -0.2223000000   -1.9774000000   -2.5363000000 
C      6.0     -0.3767000000    0.3007000000    0.4206000000 
C      6.0     -2.0658000000   -1.7979000000   -0.9482000000 
C      6.0      0.6936000000    0.7367000000    1.3547000000 
C      6.0      0.4979000000    0.7960000000    2.6851000000 
C      6.0     -0.8217000000    0.5175000000    3.2193000000 
C      6.0     -1.8422000000    0.3836000000    2.3565000000 
N      7.0     -1.6876000000    0.4049000000    0.9690000000 
C      6.0     -2.7141000000    1.1478000000    0.2093000000 
C      6.0      1.5894000000    1.1461000000    3.6492000000 
C      6.0      3.1852000000   -0.4868000000   -2.9341000000 
H      1.0      1.5226000000   -2.5206000000   -3.6102000000 
H      1.0      1.8218000000    0.8661000000   -1.0346000000 
H      1.0     -0.8286000000   -2.7802000000   -2.9510000000 
H      1.0     -2.3702000000   -2.7143000000   -1.4527000000 
H      1.0     -1.8910000000   -2.0678000000    0.0920000000 
H      1.0     -2.8941000000   -1.0951000000   -1.0428000000 
H      1.0      1.6969000000    0.9033000000    0.9826000000 
H      1.0     -0.9792000000    0.4901000000    4.2935000000 
H      1.0     -2.8723000000    0.2884000000    2.7002000000 
H      1.0     -2.3636000000    1.4601000000   -0.7823000000 
H      1.0     -3.6300000000    0.5553000000    0.1053000000 
H      1.0     -2.9787000000    2.0653000000    0.7471000000 
H      1.0      1.8704000000    0.2749000000    4.2446000000 
H      1.0      2.4887000000    1.4945000000    3.1322000000 
H      1.0      1.2744000000    1.9464000000    4.3266000000 
H      1.0      3.6006000000    0.4583000000   -2.5551000000 
H      1.0      3.8722000000   -1.2792000000   -2.6453000000 
H      1.0      3.1455000000   -0.4181000000   -4.0232000000 
 $END


