 $CONTRL SCFTYP=RHF RUNTYP=HESSIAN EXETYP=RUN
 MAXIT=200 ICHARG=0 MULT=1 ISPHER=1
 COORD=CART UNITS=ANGS $END
 $BASIS GBASIS=CCD $END
 $SYSTEM TIMLIM=1300 MWORDS=100 PARALL=.TRUE. $END
 $SCF DIRSCF=.TRUE. $END 
 $STATPT HESS=READ $END

 $DATA
bpy.mol
C1
C      6.0      1.5879000000    0.9031000000   -2.4196000000 
C      6.0      0.4385000000    0.0649000000   -2.6633000000 
C      6.0     -0.3095000000   -0.3581000000   -1.6211000000 
C      6.0      0.0252000000   -0.0255000000   -0.2101000000 
N      7.0      1.0236000000    0.9944000000   -0.0756000000 
C      6.0      1.8116000000    1.3396000000   -1.1754000000 
C      6.0     -0.5737000000   -0.6745000000    0.8463000000 
C      6.0      0.9326000000    1.9973000000    1.0016000000 
C      6.0     -1.8502000000   -1.4139000000    0.6821000000 
C      6.0     -2.5689000000   -1.8388000000    1.7358000000 
C      6.0     -2.1049000000   -1.6223000000    3.0814000000 
C      6.0     -0.8875000000   -1.0915000000    3.2444000000 
N      7.0     -0.0621000000   -0.6975000000    2.1877000000 
C      6.0      1.3911000000   -0.7382000000    2.4391000000 
Cl    17.0     -4.0772000000   -2.6455000000    1.5170000000 
O      8.0      0.2567000000   -0.2078000000   -3.9974000000 
C      6.0     -0.8501000000   -1.0229000000   -4.3596000000 
H      1.0      2.2127000000    1.2028000000   -3.2519000000 
H      1.0     -1.1448000000   -1.0089000000   -1.8180000000 
H      1.0      2.6203000000    2.0311000000   -0.9582000000 
H      1.0      0.7666000000    2.9937000000    0.5735000000 
H      1.0      1.8688000000    2.0271000000    1.5686000000 
H      1.0      0.1046000000    1.8226000000    1.6940000000 
H      1.0     -2.2662000000   -1.5745000000   -0.3015000000 
H      1.0     -2.7118000000   -1.9275000000    3.9244000000 
H      1.0     -0.4538000000   -0.9659000000    4.2324000000 
H      1.0      1.6502000000   -1.6421000000    3.0044000000 
H      1.0      1.9903000000   -0.7733000000    1.5249000000 
H      1.0      1.6954000000    0.1271000000    3.0362000000 
H      1.0     -0.8478000000   -1.1291000000   -5.4485000000 
H      1.0     -0.7594000000   -2.0232000000   -3.9239000000 
H      1.0     -1.7954000000   -0.5529000000   -4.0694000000 
 $END


