 $CONTRL SCFTYP=RHF RUNTYP=HESSIAN EXETYP=RUN
 MAXIT=200 ICHARG=0 MULT=1 ISPHER=1
 COORD=CART UNITS=ANGS $END
 $BASIS GBASIS=CCD $END
 $SYSTEM TIMLIM=1300 MWORDS=100 PARALL=.TRUE. $END
 $SCF DIRSCF=.TRUE. $END 
 $STATPT HESS=READ $END

 $DATA
bpy.mol
C1
C      6.0     -1.8891000000   -0.8582000000   -2.5752000000 
C      6.0     -0.5480000000   -1.4005000000   -2.5435000000 
C      6.0      0.2033000000   -1.2645000000   -1.4313000000 
C      6.0     -0.2745000000   -0.5449000000   -0.2258000000 
N      7.0     -1.6654000000   -0.1836000000   -0.2618000000 
C      6.0     -2.3760000000   -0.3016000000   -1.4598000000 
C      6.0      0.5787000000   -0.2531000000    0.8121000000 
C      6.0     -2.4565000000   -0.2653000000    0.9862000000 
C      6.0      1.8099000000   -1.0475000000    1.0407000000 
C      6.0      2.5369000000   -0.9304000000    2.1649000000 
C      6.0      2.1679000000    0.0169000000    3.1826000000 
C      6.0      1.1258000000    0.8222000000    2.9434000000 
N      7.0      0.3614000000    0.7863000000    1.7743000000 
C      6.0     -0.1930000000    2.0850000000    1.3286000000 
Cl    17.0      3.9067000000   -1.9333000000    2.4534000000 
C      6.0      0.0606000000   -2.0992000000   -3.6991000000 
O      8.0     -0.8151000000   -2.3343000000   -4.6932000000 
O      8.0      1.2179000000   -2.4726000000   -3.7889000000 
H      1.0     -2.4881000000   -0.9389000000   -3.4751000000 
H      1.0      1.2205000000   -1.6321000000   -1.4594000000 
H      1.0     -3.3937000000    0.0760000000   -1.4244000000 
H      1.0     -2.1977000000    0.5133000000    1.7019000000 
H      1.0     -3.5309000000   -0.1540000000    0.7929000000 
H      1.0     -2.3132000000   -1.2425000000    1.4605000000 
H      1.0      2.0973000000   -1.8157000000    0.3397000000 
H      1.0      2.7492000000    0.0847000000    4.0946000000 
H      1.0      0.8340000000    1.5935000000    3.6493000000 
H      1.0      0.6024000000    2.8414000000    1.3095000000 
H      1.0     -0.6147000000    2.0563000000    0.3216000000 
H      1.0     -0.9700000000    2.4266000000    2.0205000000 
H      1.0     -0.2841000000   -2.8464000000   -5.3392000000 
 $END


