 $CONTRL SCFTYP=RHF RUNTYP=HESSIAN EXETYP=RUN
 MAXIT=200 ICHARG=0 MULT=1 ISPHER=1
 COORD=CART UNITS=ANGS $END
 $BASIS GBASIS=CCD $END
 $SYSTEM TIMLIM=1300 MWORDS=100 PARALL=.TRUE. $END
 $SCF DIRSCF=.TRUE. $END 
 $STATPT HESS=READ $END

 $DATA
bpy.mol
C1
C      6.0     -0.3601000000   -3.5722000000   -0.0543000000 
C      6.0     -0.0728000000   -2.8856000000   -1.2978000000 
C      6.0     -0.0865000000   -1.5380000000   -1.3278000000 
C      6.0     -0.3457000000   -0.7290000000   -0.1129000000 
N      7.0     -1.0146000000   -1.4649000000    0.9144000000 
C      6.0     -0.8794000000   -2.8575000000    0.9491000000 
C      6.0      0.0493000000    0.5870000000   -0.0228000000 
C      6.0     -2.1637000000   -0.8856000000    1.6271000000 
C      6.0      0.6245000000    1.2963000000   -1.1927000000 
C      6.0      0.8083000000    2.6256000000   -1.2030000000 
C      6.0      0.4396000000    3.4307000000   -0.0661000000 
C      6.0      0.0888000000    2.7888000000    1.0581000000 
N      7.0      0.0140000000    1.3926000000    1.1657000000 
C      6.0      0.3651000000    0.8133000000    2.4748000000 
O      8.0      1.4005000000    3.2540000000   -2.2717000000 
C      6.0      0.1519000000   -3.5966000000   -2.5782000000 
O      8.0      0.1826000000   -4.9355000000   -2.4392000000 
O      8.0      0.2627000000   -3.0844000000   -3.6791000000 
H      1.0     -0.2179000000   -4.6465000000    0.0145000000 
H      1.0      0.0762000000   -1.0369000000   -2.2727000000 
H      1.0     -1.2030000000   -3.3251000000    1.8723000000 
H      1.0     -2.2266000000    0.2032000000    1.5443000000 
H      1.0     -2.1195000000   -1.1485000000    2.6920000000 
H      1.0     -3.0975000000   -1.2876000000    1.2162000000 
H      1.0      0.9546000000    0.7458000000   -2.0641000000 
H      1.0      0.4665000000    4.5133000000   -0.1191000000 
H      1.0     -0.1363000000    3.3277000000    1.9743000000 
H      1.0      1.2608000000    1.3078000000    2.8758000000 
H      1.0      0.6186000000   -0.2490000000    2.4228000000 
H      1.0     -0.4498000000    0.9529000000    3.1921000000 
H      1.0      1.8577000000    4.0401000000   -1.9330000000 
H      1.0      0.2994000000   -5.2529000000   -3.3591000000 
 $END


