 $CONTRL SCFTYP=RHF RUNTYP=HESSIAN EXETYP=RUN
 MAXIT=200 ICHARG=0 MULT=1 ISPHER=1
 COORD=CART UNITS=ANGS $END
 $BASIS GBASIS=CCD $END
 $SYSTEM TIMLIM=1300 MWORDS=100 PARALL=.TRUE. $END
 $SCF DIRSCF=.TRUE. $END 
 $STATPT HESS=READ $END

 $DATA
bpy.mol
C1
C      6.0     -0.5337000000   -0.6820000000    3.4824000000 
C      6.0     -1.2384000000   -1.6309000000    2.6590000000 
C      6.0     -1.0926000000   -1.6108000000    1.3219000000 
C      6.0     -0.2554000000   -0.5978000000    0.6307000000 
N      7.0      0.5944000000    0.1514000000    1.5128000000 
C      6.0      0.3524000000    0.1288000000    2.8916000000 
C      6.0     -0.3377000000   -0.4055000000   -0.7292000000 
C      6.0      1.9633000000    0.5046000000    1.0983000000 
C      6.0     -0.9123000000   -1.4420000000   -1.6235000000 
C      6.0     -0.7948000000   -1.3837000000   -2.9618000000 
C      6.0     -0.1254000000   -0.2721000000   -3.5877000000 
C      6.0      0.2728000000    0.7418000000   -2.8106000000 
N      7.0      0.1154000000    0.7689000000   -1.4221000000 
C      6.0      0.0418000000    2.0958000000   -0.7869000000 
H      1.0     -0.6786000000   -0.6883000000    4.5537000000 
H      1.0     -1.8833000000   -2.3570000000    3.1420000000 
H      1.0     -1.6673000000   -2.3291000000    0.7553000000 
H      1.0      0.9738000000    0.8033000000    3.4710000000 
H      1.0      2.1709000000    0.3051000000    0.0430000000 
H      1.0      2.6926000000   -0.0830000000    1.6707000000 
H      1.0      2.1542000000    1.5657000000    1.2964000000 
H      1.0     -1.3938000000   -2.3183000000   -1.2132000000 
H      1.0     -1.1949000000   -2.1667000000   -3.5956000000 
H      1.0     -0.0015000000   -0.2571000000   -4.6635000000 
H      1.0      0.7269000000    1.6324000000   -3.2348000000 
H      1.0      1.0485000000    2.4891000000   -0.6146000000 
H      1.0     -0.4830000000    2.8029000000   -1.4414000000 
H      1.0     -0.5143000000    2.0912000000    0.1561000000 
 $END


