 $CONTRL SCFTYP=RHF RUNTYP=HESSIAN EXETYP=RUN
 MAXIT=200 ICHARG=0 MULT=1 ISPHER=1
 COORD=CART UNITS=ANGS $END
 $BASIS GBASIS=CCD $END
 $SYSTEM TIMLIM=1300 MWORDS=100 PARALL=.TRUE. $END
 $SCF DIRSCF=.TRUE. $END 
 $STATPT HESS=READ $END

 $DATA
bpy.mol
C1
C      6.0      1.6515000000   -2.8941000000    1.8639000000 
C      6.0      1.6062000000   -2.8884000000    0.4227000000 
C      6.0      0.8322000000   -2.0097000000   -0.2419000000 
C      6.0      0.0338000000   -0.9627000000    0.4551000000 
N      7.0      0.0893000000   -1.0393000000    1.8889000000 
C      6.0      0.8949000000   -1.9958000000    2.5066000000 
C      6.0     -0.5693000000    0.0152000000   -0.3040000000 
C      6.0     -0.6637000000   -0.1304000000    2.7592000000 
C      6.0     -0.5151000000    0.0266000000   -1.7837000000 
C      6.0     -0.2807000000    1.2007000000   -2.4266000000 
C      6.0     -0.1092000000    2.4247000000   -1.6572000000 
C      6.0     -0.5867000000    2.4085000000   -0.3982000000 
N      7.0     -1.1105000000    1.2453000000    0.2039000000 
C      6.0     -2.5831000000    1.2802000000    0.4473000000 
C      6.0     -0.2828000000    1.2223000000   -3.9066000000 
O      8.0     -1.0057000000    0.4951000000   -4.5720000000 
C      6.0      2.4693000000   -3.8171000000   -0.3464000000 
O      8.0      1.8445000000   -5.0033000000   -0.5761000000 
O      8.0      3.6182000000   -3.5696000000   -0.6830000000 
H      1.0      2.3223000000   -3.5647000000    2.3896000000 
H      1.0      0.8729000000   -2.0194000000   -1.3267000000 
H      1.0      0.9060000000   -1.9522000000    3.5923000000 
H      1.0     -1.7529000000   -0.3180000000    2.6622000000 
H      1.0     -0.4150000000    0.9228000000    2.5747000000 
H      1.0     -0.4234000000   -0.2963000000    3.8172000000 
H      1.0     -0.7364000000   -0.8896000000   -2.3230000000 
H      1.0      0.2682000000    3.3250000000   -2.1204000000 
H      1.0     -0.6325000000    3.2968000000    0.2176000000 
H      1.0     -3.1307000000    1.3893000000   -0.4989000000 
H      1.0     -2.8340000000    2.1303000000    1.0937000000 
H      1.0     -2.9383000000    0.3602000000    0.9355000000 
H      1.0      0.3615000000    1.9832000000   -4.3713000000 
H      1.0      0.9115000000   -5.0209000000   -0.2942000000 
 $END


