 $CONTRL SCFTYP=RHF RUNTYP=HESSIAN EXETYP=RUN
 MAXIT=200 ICHARG=0 MULT=1 ISPHER=1
 COORD=CART UNITS=ANGS $END
 $BASIS GBASIS=CCD $END
 $SYSTEM TIMLIM=1300 MWORDS=100 PARALL=.TRUE. $END
 $SCF DIRSCF=.TRUE. $END 
 $STATPT HESS=READ $END

 $DATA
bpy.mol
C1
C      6.0     -1.8372000000    1.6800000000   -0.2063000000 
C      6.0     -2.2064000000    0.6019000000   -1.0909000000 
C      6.0     -1.2795000000   -0.3031000000   -1.4322000000 
C      6.0      0.0855000000   -0.1299000000   -0.8847000000 
N      7.0      0.4775000000    1.2546000000   -0.8119000000 
C      6.0     -0.5393000000    2.0664000000   -0.2474000000 
C      6.0      0.5909000000   -1.1786000000   -0.1487000000 
C      6.0      1.1425000000    1.8887000000   -1.9634000000 
C      6.0     -0.3979000000   -2.2621000000    0.1376000000 
C      6.0     -0.5632000000   -2.5609000000    1.4457000000 
C      6.0      0.6504000000   -2.6269000000    2.2593000000 
C      6.0      1.7588000000   -2.0073000000    1.8182000000 
N      7.0      1.7718000000   -1.2715000000    0.6263000000 
C      6.0      2.9014000000   -0.3957000000    0.3768000000 
C      6.0     -1.8782000000   -2.3638000000    2.1299000000 
N      7.0     -3.3980000000    0.7243000000   -1.9259000000 
O      8.0     -4.1688000000    1.6753000000   -1.6897000000 
O      8.0     -3.5631000000   -0.0721000000   -2.8546000000 
H      1.0     -2.6412000000    2.2671000000    0.2222000000 
H      1.0     -1.5031000000   -1.1847000000   -2.0112000000 
H      1.0     -0.3035000000    3.1346000000   -0.1148000000 
H      1.0      0.4455000000    2.0549000000   -2.8054000000 
H      1.0      1.5171000000    2.8806000000   -1.6786000000 
H      1.0      1.9796000000    1.2820000000   -2.3084000000 
H      1.0     -0.1362000000   -3.1184000000   -0.4886000000 
H      1.0      0.6506000000   -3.1030000000    3.2250000000 
H      1.0      2.6916000000   -1.9725000000    2.4374000000 
H      1.0      2.8834000000    0.4313000000    1.1032000000 
H      1.0      2.8983000000    0.0673000000   -0.6181000000 
H      1.0      3.8624000000   -0.9188000000    0.4813000000 
H      1.0     -2.7189000000   -2.1704000000    1.4451000000 
H      1.0     -1.8087000000   -1.5536000000    2.8969000000 
H      1.0     -2.1010000000   -3.2796000000    2.6757000000 
 $END


