 $CONTRL SCFTYP=RHF RUNTYP=HESSIAN EXETYP=RUN
 MAXIT=200 ICHARG=0 MULT=1 ISPHER=1
 COORD=CART UNITS=ANGS $END
 $BASIS GBASIS=CCD $END
 $SYSTEM TIMLIM=1300 MWORDS=100 PARALL=.TRUE. $END
 $SCF DIRSCF=.TRUE. $END 
 $STATPT HESS=READ $END

 $DATA
bpy.mol
C1
C      6.0      2.4026000000   -1.3338000000    2.5792000000 
C      6.0      1.2722000000   -0.6093000000    3.0999000000 
C      6.0      0.3761000000   -0.0539000000    2.2648000000 
C      6.0      0.4788000000   -0.1842000000    0.7887000000 
N      7.0      1.7385000000   -0.7086000000    0.3422000000 
C      6.0      2.5956000000   -1.3310000000    1.2551000000 
C      6.0     -0.5658000000    0.1592000000   -0.0396000000 
C      6.0      2.3532000000   -0.2236000000   -0.9066000000 
C      6.0     -1.6624000000    1.0505000000    0.4223000000 
C      6.0     -2.5459000000    1.5928000000   -0.4353000000 
C      6.0     -2.4869000000    1.2993000000   -1.8401000000 
C      6.0     -1.6014000000    0.3848000000   -2.2522000000 
N      7.0     -0.7029000000   -0.2694000000   -1.4033000000 
C      6.0     -0.2861000000   -1.6235000000   -1.8109000000 
O      8.0     -3.5488000000    2.4560000000   -0.0721000000 
H      1.0      3.0928000000   -1.8153000000    3.2606000000 
H      1.0      1.1637000000   -0.5287000000    4.1757000000 
H      1.0     -0.4671000000    0.4468000000    2.7176000000 
H      1.0      3.4689000000   -1.7992000000    0.8107000000 
H      1.0      3.3100000000    0.2672000000   -0.6889000000 
H      1.0      2.5537000000   -1.0637000000   -1.5793000000 
H      1.0      1.7465000000    0.5182000000   -1.4335000000 
H      1.0     -1.7273000000    1.3290000000    1.4623000000 
H      1.0     -3.1803000000    1.7794000000   -2.5185000000 
H      1.0     -1.5578000000    0.0711000000   -3.2908000000 
H      1.0      0.4433000000   -1.5645000000   -2.6251000000 
H      1.0     -1.1519000000   -2.1894000000   -2.1771000000 
H      1.0      0.1371000000   -2.2149000000   -0.9943000000 
H      1.0     -3.5008000000    2.5865000000    0.8889000000 
 $END


