 $CONTRL SCFTYP=RHF RUNTYP=HESSIAN EXETYP=RUN
 MAXIT=200 ICHARG=0 MULT=1 ISPHER=1
 COORD=CART UNITS=ANGS $END
 $BASIS GBASIS=CCD $END
 $SYSTEM TIMLIM=1300 MWORDS=100 PARALL=.TRUE. $END
 $SCF DIRSCF=.TRUE. $END 
 $STATPT HESS=READ $END

 $DATA
bpy.mol
C1
C      6.0     -0.7070000000   -3.2941000000    1.9273000000 
C      6.0     -0.9195000000   -3.1849000000    0.4977000000 
C      6.0     -0.6745000000   -2.0140000000   -0.1308000000 
C      6.0     -0.1248000000   -0.8345000000    0.5827000000 
N      7.0     -0.0995000000   -0.9608000000    2.0068000000 
C      6.0     -0.3342000000   -2.2020000000    2.6014000000 
C      6.0      0.3647000000    0.2407000000   -0.1155000000 
C      6.0     -0.4003000000    0.2243000000    2.8401000000 
C      6.0     -0.1220000000    0.5514000000   -1.4819000000 
C      6.0      0.2010000000    1.6925000000   -2.1312000000 
C      6.0      1.0934000000    2.6405000000   -1.4994000000 
C      6.0      1.6043000000    2.3493000000   -0.2966000000 
N      7.0      1.3346000000    1.1661000000    0.3971000000 
C      6.0      2.3519000000    0.7250000000    1.3710000000 
O      8.0     -0.2510000000    2.1211000000   -3.3579000000 
C      6.0     -1.1988000000    1.3113000000   -4.0375000000 
C      6.0     -1.3889000000   -4.3181000000   -0.3272000000 
O      8.0     -1.7984000000   -5.3637000000    0.4126000000 
O      8.0     -1.4251000000   -4.3637000000   -1.5490000000 
H      1.0     -0.9301000000   -4.2211000000    2.4410000000 
H      1.0     -0.8112000000   -1.9646000000   -1.2094000000 
H      1.0     -0.2498000000   -2.2112000000    3.6835000000 
H      1.0     -1.4166000000    0.1446000000    3.2363000000 
H      1.0      0.2944000000    0.2995000000    3.6899000000 
H      1.0     -0.3742000000    1.1711000000    2.2786000000 
H      1.0     -0.8443000000   -0.1181000000   -1.9298000000 
H      1.0      1.3388000000    3.5747000000   -2.0037000000 
H      1.0      2.3130000000    3.0168000000    0.1878000000 
H      1.0      3.3603000000    0.9674000000    1.0048000000 
H      1.0      2.2126000000    1.2494000000    2.3275000000 
H      1.0      2.3498000000   -0.3564000000    1.5412000000 
H      1.0     -2.1153000000    1.2061000000   -3.4476000000 
H      1.0     -1.4736000000    1.8172000000   -4.9693000000 
H      1.0     -0.7652000000    0.3411000000   -4.2923000000 
H      1.0     -2.0448000000   -6.0482000000   -0.2481000000 
 $END


