 $CONTRL SCFTYP=RHF RUNTYP=HESSIAN EXETYP=RUN
 MAXIT=200 ICHARG=0 MULT=1 ISPHER=1
 COORD=CART UNITS=ANGS $END
 $BASIS GBASIS=CCD $END
 $SYSTEM TIMLIM=1300 MWORDS=100 PARALL=.TRUE. $END
 $SCF DIRSCF=.TRUE. $END 
 $STATPT HESS=READ $END

 $DATA
bpy.mol
C1
C      6.0      2.3869000000    2.5997000000    0.1093000000 
C      6.0      2.8501000000    1.2508000000   -0.1328000000 
C      6.0      1.9627000000    0.2384000000   -0.2137000000 
C      6.0      0.5039000000    0.4398000000   -0.0274000000 
N      7.0      0.1094000000    1.8186000000   -0.0295000000 
C      6.0      1.0678000000    2.8213000000    0.1272000000 
C      6.0     -0.3568000000   -0.6217000000    0.1421000000 
C      6.0     -1.1888000000    2.2314000000   -0.5974000000 
C      6.0      0.0191000000   -2.0051000000   -0.2566000000 
C      6.0     -0.8861000000   -3.0031000000   -0.3529000000 
C      6.0     -2.2672000000   -2.7446000000   -0.0235000000 
C      6.0     -2.5923000000   -1.5529000000    0.4891000000 
N      7.0     -1.6799000000   -0.5136000000    0.6826000000 
C      6.0     -1.9588000000    0.3947000000    1.8106000000 
O      8.0     -0.6712000000   -4.3014000000   -0.7465000000 
C      6.0      0.6558000000   -4.6774000000   -1.0903000000 
C      6.0      4.2483000000    1.0118000000   -0.2726000000 
N      7.0      5.3862000000    0.8127000000   -0.3868000000 
H      1.0      3.0994000000    3.4091000000    0.2231000000 
H      1.0      2.3542000000   -0.7589000000   -0.3632000000 
H      1.0      0.6642000000    3.8244000000    0.2366000000 
H      1.0     -1.7550000000    1.4037000000   -1.0339000000 
H      1.0     -1.0321000000    2.9512000000   -1.4106000000 
H      1.0     -1.7979000000    2.7216000000    0.1684000000 
H      1.0      1.0391000000   -2.2093000000   -0.5354000000 
H      1.0     -2.9993000000   -3.5331000000   -0.1468000000 
H      1.0     -3.6040000000   -1.3400000000    0.8215000000 
H      1.0     -2.2227000000   -0.1861000000    2.7031000000 
H      1.0     -2.8061000000    1.0452000000    1.5699000000 
H      1.0     -1.1053000000    1.0166000000    2.0938000000 
H      1.0      1.3308000000   -4.5603000000   -0.2361000000 
H      1.0      1.0135000000   -4.1070000000   -1.9537000000 
H      1.0      0.6448000000   -5.7357000000   -1.3677000000 
 $END


