 $CONTRL SCFTYP=RHF RUNTYP=HESSIAN EXETYP=RUN
 MAXIT=200 ICHARG=0 MULT=1 ISPHER=1
 COORD=CART UNITS=ANGS $END
 $BASIS GBASIS=CCD $END
 $SYSTEM TIMLIM=1300 MWORDS=100 PARALL=.TRUE. $END
 $SCF DIRSCF=.TRUE. $END 
 $STATPT HESS=READ $END

 $DATA
bpy.mol
C1
C      6.0     -1.7430000000   -1.5566000000   -3.1577000000 
C      6.0     -2.5563000000   -1.4136000000   -1.9758000000 
C      6.0     -1.9960000000   -1.0095000000   -0.8227000000 
C      6.0     -0.5625000000   -0.6473000000   -0.7209000000 
N      7.0      0.2180000000   -1.1935000000   -1.7949000000 
C      6.0     -0.4135000000   -1.4893000000   -3.0094000000 
C      6.0     -0.1170000000    0.1073000000    0.3407000000 
C      6.0      1.5477000000   -1.7807000000   -1.5797000000 
C      6.0      1.3167000000    0.4720000000    0.4396000000 
C      6.0      1.8909000000    0.8737000000    1.5912000000 
C      6.0      1.0676000000    1.0050000000    2.7765000000 
C      6.0     -0.2619000000    0.9331000000    2.6302000000 
N      7.0     -0.8954000000    0.6479000000    1.4161000000 
C      6.0     -2.2261000000    1.2341000000    1.2079000000 
C      6.0      3.3373000000    1.2388000000    1.7101000000 
H      1.0     -2.2067000000   -1.7983000000   -4.1055000000 
H      1.0     -3.6040000000   -1.6856000000   -2.0298000000 
H      1.0     -2.6046000000   -0.9848000000    0.0704000000 
H      1.0      0.2614000000   -1.6876000000   -3.8365000000 
H      1.0      1.7433000000   -1.9934000000   -0.5237000000 
H      1.0      1.6348000000   -2.7425000000   -2.1005000000 
H      1.0      2.3262000000   -1.1210000000   -1.9760000000 
H      1.0      1.9099000000    0.4454000000   -0.4643000000 
H      1.0      1.5216000000    1.2344000000    3.7328000000 
H      1.0     -0.9350000000    1.1202000000    3.4615000000 
H      1.0     -2.3135000000    2.1924000000    1.7352000000 
H      1.0     -3.0026000000    0.5706000000    1.6017000000 
H      1.0     -2.4243000000    1.4532000000    0.1537000000 
H      1.0      3.8370000000    0.5955000000    2.4422000000 
H      1.0      3.8653000000    1.1274000000    0.7569000000 
H      1.0      3.4474000000    2.2803000000    2.0305000000 
 $END


