 $CONTRL SCFTYP=RHF RUNTYP=HESSIAN EXETYP=RUN
 MAXIT=200 ICHARG=0 MULT=1 ISPHER=1
 COORD=CART UNITS=ANGS $END
 $BASIS GBASIS=CCD $END
 $SYSTEM TIMLIM=1300 MWORDS=100 PARALL=.TRUE. $END
 $SCF DIRSCF=.TRUE. $END 
 $STATPT HESS=READ $END

 $DATA
bpy.mol
C1
C      6.0      2.6569000000   -1.1806000000   -2.0555000000 
C      6.0      1.3807000000   -1.4264000000   -2.6739000000 
C      6.0      0.2401000000   -1.0343000000   -2.0794000000 
C      6.0      0.2321000000   -0.3701000000   -0.7513000000 
N      7.0      1.5308000000    0.0605000000   -0.3166000000 
C      6.0      2.6772000000   -0.4386000000   -0.9408000000 
C      6.0     -0.9302000000   -0.2093000000   -0.0310000000 
C      6.0      1.6886000000    1.3203000000    0.4363000000 
C      6.0     -2.2649000000   -0.3205000000   -0.6713000000 
C      6.0     -3.3883000000    0.1076000000   -0.0677000000 
C      6.0     -3.3378000000    0.6528000000    1.2645000000 
C      6.0     -2.1719000000    0.6036000000    1.9205000000 
N      7.0     -0.9856000000    0.1072000000    1.3684000000 
C      6.0     -0.0370000000   -0.5103000000    2.3121000000 
Cl    17.0      1.3612000000   -2.2291000000   -4.1995000000 
H      1.0      3.5659000000   -1.5446000000   -2.5180000000 
H      1.0     -0.6878000000   -1.2581000000   -2.5841000000 
H      1.0      3.6143000000   -0.1506000000   -0.4704000000 
H      1.0      2.1412000000    1.1253000000    1.4132000000 
H      1.0      2.3492000000    2.0046000000   -0.1103000000 
H      1.0      0.7482000000    1.8609000000    0.5772000000 
H      1.0     -2.3683000000   -0.7066000000   -1.6753000000 
H      1.0     -4.3513000000    0.0437000000   -0.5643000000 
H      1.0     -4.2442000000    1.0292000000    1.7231000000 
H      1.0     -2.0911000000    0.9289000000    2.9551000000 
H      1.0      0.4174000000    0.2587000000    2.9421000000 
H      1.0      0.7588000000   -1.0852000000    1.8286000000 
H      1.0     -0.5670000000   -1.2113000000    2.9682000000 
 $END


