 $CONTRL COORD=CART UNITS=ANGS $END

 $DATA
bpy.mol
C1
C      6.0     -2.8387000000   -3.0483000000    0.3012000000 
C      6.0     -3.1187000000   -1.6421000000    0.4340000000 
C      6.0     -2.1595000000   -0.7069000000    0.2868000000 
C      6.0     -0.7530000000   -1.0968000000    0.0322000000 
N      7.0     -0.5815000000   -2.4725000000   -0.3373000000 
C      6.0     -1.6091000000   -3.3911000000   -0.1084000000 
C      6.0      0.2765000000   -0.2010000000    0.2086000000 
C      6.0      0.3709000000   -2.8218000000   -1.4111000000 
C      6.0      0.0379000000    1.2630000000    0.1596000000 
C      6.0      1.0424000000    2.1578000000    0.1616000000 
C      6.0      2.4146000000    1.7233000000    0.2883000000 
C      6.0      2.6480000000    0.4141000000    0.4237000000 
N      7.0      1.6435000000   -0.5647000000    0.4503000000 
C      6.0      1.9729000000   -1.8322000000    1.1322000000 
O      8.0      0.7927000000    3.5135000000    0.0995000000 
C      6.0      1.3568000000    4.1257000000   -1.0584000000 
N      7.0     -4.4620000000   -1.1892000000    0.7817000000 
O      8.0     -4.8279000000   -0.0735000000    0.3861000000 
O      8.0     -5.1574000000   -1.9597000000    1.4583000000 
H      1.0     -3.6186000000   -3.7838000000    0.4662000000 
H      1.0     -2.4046000000    0.3314000000    0.4442000000 
H      1.0     -1.3522000000   -4.4271000000   -0.3145000000 
H      1.0     -0.1619000000   -2.9447000000   -2.3605000000 
H      1.0      0.8725000000   -3.7677000000   -1.1801000000 
H      1.0      1.1391000000   -2.0629000000   -1.5790000000 
H      1.0     -0.9621000000    1.6589000000    0.0446000000 
H      1.0      3.2189000000    2.4432000000    0.3231000000 
H      1.0      3.6549000000    0.0364000000    0.5761000000 
H      1.0      1.1275000000   -2.2434000000    1.6885000000 
H      1.0      2.7716000000   -1.6827000000    1.8607000000 
H      1.0      2.3345000000   -2.5727000000    0.4141000000 
H      1.0      0.8928000000    5.1086000000   -1.1778000000 
H      1.0      1.1565000000    3.5426000000   -1.9632000000 
H      1.0      2.4338000000    4.2734000000   -0.9313000000 
 $END


