!   File created by the GAMESS Input Deck Generator Plugin for Avogadro
 $BASIS GBASIS=CCD $END
 $CONTRL SCFTYP=RHF RUNTYP=HESSIAN EXETYP=RUN DFTTYP=B3LYP
MAXIT=30 ICHARG=0 MULT=1 ISPHER=1 $END
 $SYSTEM TIMLIM=1300 MWORDS=500 PARALL=.TRUE. $END
 $SCF DIRSCF=.TRUE. $END
 $STATPT HESS=READ $END

 $DATA 
Title
C1
N     7.0    -2.44178     4.38569     0.24120
C     6.0    -3.65519     3.77860    -0.09632
C     6.0    -3.77526     2.49214    -0.44646
C     6.0    -2.59112     1.67175    -0.42224
C     6.0    -1.38724     2.21861    -0.17673
C     6.0    -1.20894     3.67700     0.04144
C     6.0     0.03800     4.26064     0.02867
C     6.0     1.27144     3.45278     0.20925
C     6.0     2.46962     4.01408     0.45164
C     6.0     2.60405     5.44709     0.51005
C     6.0     1.53791     6.19272     0.19674
N     7.0     0.28631     5.66502    -0.13507
C     6.0    -2.51357     5.51332     1.18708
H     1.0    -3.20640     5.27543     2.00385
H     1.0    -2.88927     6.40781     0.67985
H     1.0    -1.55673     5.74803     1.66158
C     6.0    -0.54891     6.47461    -1.03943
H     1.0     0.06498     6.88848    -1.84912
H     1.0    -0.99185     7.31395    -0.49376
H     1.0    -1.34540     5.90478    -1.52600
H     1.0     1.22844     2.37334     0.20867
H     1.0     3.35336     3.40622     0.60958
H     1.0     3.56388     5.88696     0.74986
H     1.0     1.59950     7.27596     0.15294
C     6.0    -2.23889    -0.20194    -0.64483
O     8.0    -1.22879    -0.79910    -1.31407
H     1.0    -0.65056    -0.17731    -1.79141
O     8.0    -3.20311    -0.81784    -0.22029
H     1.0    -0.53407     1.55646    -0.20290
H     1.0    -4.52271     4.42773    -0.02441
H     1.0    -4.73218     2.04798    -0.68976
 $END
