 $CONTRL COORD=CART UNITS=ANGS $END

 $DATA
bpy.mol
C1
C      6.0     -2.3637000000    0.6413000000   -1.8787000000 
C      6.0     -0.9657000000    0.5531000000   -2.2395000000 
C      6.0     -0.0748000000    0.4109000000   -1.2369000000 
C      6.0     -0.4372000000    0.2725000000    0.1951000000 
N      7.0     -1.7579000000    0.7651000000    0.4841000000 
C      6.0     -2.6796000000    0.7913000000   -0.5859000000 
C      6.0      0.4258000000   -0.4213000000    1.0307000000 
C      6.0     -2.3086000000    0.8648000000    1.8391000000 
C      6.0      1.4414000000   -1.3318000000    0.4153000000 
C      6.0      1.7433000000   -2.5229000000    0.9774000000 
C      6.0      1.2795000000   -2.8116000000    2.3177000000 
C      6.0      0.6701000000   -1.8302000000    3.0008000000 
N      7.0      0.3217000000   -0.5910000000    2.4418000000 
C      6.0      0.4761000000    0.5877000000    3.3141000000 
O      8.0      2.4612000000   -3.5611000000    0.4262000000 
C      6.0      2.9665000000   -3.3776000000   -0.8933000000 
N      7.0     -0.6126000000    0.5932000000   -3.5864000000 
C      6.0     -0.5895000000    1.8775000000   -4.2863000000 
H      1.0     -3.1164000000    0.5989000000   -2.6590000000 
H      1.0      0.9800000000    0.4441000000   -1.4828000000 
H      1.0     -3.7206000000    0.9048000000   -0.3022000000 
H      1.0     -2.1622000000   -0.0678000000    2.3899000000 
H      1.0     -1.8527000000    1.6906000000    2.3995000000 
H      1.0     -3.3919000000    1.0224000000    1.8357000000 
H      1.0      1.8512000000   -1.0781000000   -0.5435000000 
H      1.0      1.5455000000   -3.7614000000    2.7737000000 
H      1.0      0.3931000000   -1.9559000000    4.0445000000 
H      1.0      0.3487000000    1.5260000000    2.7686000000 
H      1.0      1.4813000000    0.6002000000    3.7539000000 
H      1.0     -0.2662000000    0.5621000000    4.1206000000 
H      1.0      3.7609000000   -2.6207000000   -0.8971000000 
H      1.0      2.1741000000   -3.1229000000   -1.6013000000 
H      1.0      3.3982000000   -4.3303000000   -1.2195000000 
H      1.0      0.3095000000    0.1814000000   -3.6874000000 
H      1.0     -1.2656000000    2.6083000000   -3.8237000000 
H      1.0      0.4268000000    2.2934000000   -4.2723000000 
H      1.0     -0.8897000000    1.7357000000   -5.3330000000 
 $END


