 $CONTRL COORD=CART UNITS=ANGS $END

 $DATA
bpy.mol
C1
C      6.0      1.8825000000   -0.9501000000   -2.2385000000 
C      6.0      2.3863000000   -0.4528000000   -0.9777000000 
C      6.0      1.5259000000   -0.1263000000    0.0061000000 
C      6.0      0.0604000000   -0.2749000000   -0.1400000000 
N      7.0     -0.3561000000   -0.4347000000   -1.5022000000 
C      6.0      0.5644000000   -0.8780000000   -2.4571000000 
C      6.0     -0.7737000000   -0.2282000000    0.9541000000 
C      6.0     -1.5694000000    0.2249000000   -2.0110000000 
C      6.0     -0.2703000000    0.1179000000    2.3078000000 
C      6.0     -1.0980000000    0.5083000000    3.2908000000 
C      6.0     -2.5211000000    0.5810000000    3.0581000000 
C      6.0     -2.9981000000    0.0354000000    1.9318000000 
N      7.0     -2.1789000000   -0.5083000000    0.9359000000 
C      6.0     -2.7069000000   -1.6578000000    0.1869000000 
C      6.0      3.8299000000   -0.2657000000   -0.7152000000 
O      8.0      4.5541000000   -0.1624000000   -1.8463000000 
O      8.0      4.3636000000   -0.2036000000    0.3779000000 
H      1.0      2.5723000000   -1.2983000000   -2.9991000000 
H      1.0      1.9270000000    0.2880000000    0.9222000000 
H      1.0      0.1331000000   -1.1515000000   -3.4170000000 
H      1.0     -2.1337000000    0.7634000000   -1.2464000000 
H      1.0     -2.2277000000   -0.5136000000   -2.4788000000 
H      1.0     -1.3052000000    0.9692000000   -2.7724000000 
H      1.0      0.7838000000    0.0104000000    2.5479000000 
H      1.0     -0.7218000000    0.7432000000    4.2835000000 
H      1.0     -3.1558000000    1.0378000000    3.8122000000 
H      1.0     -4.0630000000    0.0063000000    1.7112000000 
H      1.0     -3.4683000000   -1.3295000000   -0.5315000000 
H      1.0     -1.9311000000   -2.2190000000   -0.3471000000 
H      1.0     -3.1771000000   -2.3700000000    0.8766000000 
H      1.0      5.4730000000   -0.0483000000   -1.5230000000 
 $END


