 $CONTRL SCFTYP=RHF RUNTYP=HESSIAN EXETYP=RUN
 MAXIT=200 ICHARG=0 MULT=1 ISPHER=1
 COORD=CART UNITS=ANGS $END
 $BASIS GBASIS=CCD $END
 $SYSTEM TIMLIM=1300 MWORDS=100 PARALL=.TRUE. $END
 $SCF DIRSCF=.TRUE. $END 
 $STATPT HESS=READ $END

 $DATA
bpy.mol
C1
C      6.0     -1.2722000000   -2.6866000000    2.5199000000 
C      6.0     -0.6845000000   -3.1404000000    1.2702000000 
C      6.0     -0.1971000000   -2.2342000000    0.3990000000 
C      6.0     -0.3109000000   -0.7763000000    0.6520000000 
N      7.0     -0.4928000000   -0.4506000000    2.0360000000 
C      6.0     -1.0854000000   -1.3989000000    2.8670000000 
C      6.0     -0.2300000000    0.1925000000   -0.3141000000 
C      6.0      0.2728000000    0.6353000000    2.6983000000 
C      6.0      0.3416000000   -0.0902000000   -1.6478000000 
C      6.0      0.7830000000    0.9241000000   -2.4181000000 
C      6.0      0.3812000000    2.2981000000   -2.1244000000 
C      6.0     -0.2199000000    2.5588000000   -0.9590000000 
N      7.0     -0.6375000000    1.5572000000   -0.1074000000 
C      6.0     -1.8667000000    1.7914000000    0.6801000000 
N      7.0      1.7470000000    0.8572000000   -3.3959000000 
C      6.0      2.5789000000   -0.3038000000   -3.6736000000 
C      6.0     -0.6909000000   -4.5741000000    0.9054000000 
O      8.0     -1.7339000000   -5.2192000000    1.4739000000 
O      8.0      0.1077000000   -5.1602000000    0.1972000000 
H      1.0     -1.8325000000   -3.3618000000    3.1224000000 
H      1.0      0.2698000000   -2.6183000000   -0.5131000000 
H      1.0     -1.4591000000   -1.0248000000    3.8391000000 
H      1.0      1.2125000000    0.2191000000    3.0684000000 
H      1.0      0.4661000000    1.5320000000    2.0978000000 
H      1.0     -0.2647000000    0.9750000000    3.5801000000 
H      1.0      0.6724000000   -1.1019000000   -1.8402000000 
H      1.0      0.5314000000    3.0826000000   -2.8584000000 
H      1.0     -0.3905000000    3.5888000000   -0.6306000000 
H      1.0     -2.5510000000    2.4320000000    0.0910000000 
H      1.0     -2.4483000000    0.8541000000    0.8138000000 
H      1.0     -1.6430000000    2.2224000000    1.6501000000 
H      1.0      2.3906000000    1.6258000000   -3.1852000000 
H      1.0      3.2210000000   -0.0519000000   -4.5149000000 
H      1.0      2.0400000000   -1.2299000000   -3.9859000000 
H      1.0      3.1797000000   -0.5249000000   -2.7845000000 
H      1.0     -1.8348000000   -6.0433000000    0.9914000000 
 $END


