 $CONTRL COORD=CART UNITS=ANGS $END

 $DATA
bpy.mol
C1
C      6.0     -2.9627000000   -1.6203000000    0.2180000000 
C      6.0     -2.3505000000   -0.6577000000    1.1032000000 
C      6.0     -1.0397000000   -0.4035000000    0.9624000000 
C      6.0     -0.2105000000   -0.9003000000   -0.1991000000 
N      7.0     -1.0060000000   -1.5120000000   -1.2227000000 
C      6.0     -2.2734000000   -2.0126000000   -0.8601000000 
C      6.0      1.1048000000   -0.4804000000   -0.1595000000 
C      6.0     -0.4073000000   -2.1338000000   -2.4085000000 
C      6.0      1.7447000000   -0.4059000000    1.1774000000 
C      6.0      2.7623000000    0.4463000000    1.4108000000 
C      6.0      3.2297000000    1.3659000000    0.3887000000 
C      6.0      2.8543000000    1.0992000000   -0.8704000000 
N      7.0      1.9668000000    0.0334000000   -1.1970000000 
C      6.0      2.3505000000   -0.7554000000   -2.3667000000 
N      7.0      3.5098000000    0.2686000000    2.6471000000 
O      8.0      3.9849000000    1.2876000000    3.1815000000 
O      8.0      3.6309000000   -0.8878000000    3.0832000000 
N      7.0     -3.1561000000    0.0361000000    2.0009000000 
C      6.0     -4.1682000000    0.9346000000    1.4289000000 
H      1.0     -3.9246000000   -2.0359000000    0.4904000000 
H      1.0     -0.6214000000    0.3540000000    1.6268000000 
H      1.0     -2.6590000000   -2.8078000000   -1.4888000000 
H      1.0     -1.1489000000   -2.6414000000   -3.0462000000 
H      1.0      0.3021000000   -2.8949000000   -2.0844000000 
H      1.0      0.0468000000   -1.3820000000   -3.0572000000 
H      1.0      1.4742000000   -1.1685000000    1.9051000000 
H      1.0      3.9578000000    2.1390000000    0.6344000000 
H      1.0      3.2632000000    1.6372000000   -1.7275000000 
H      1.0      1.8496000000   -0.3673000000   -3.2600000000 
H      1.0      2.1642000000   -1.8322000000   -2.2413000000 
H      1.0      3.4373000000   -0.6618000000   -2.5607000000 
H      1.0     -2.5857000000    0.5539000000    2.6634000000 
H      1.0     -3.8029000000    1.3729000000    0.4819000000 
H      1.0     -4.3739000000    1.7681000000    2.1170000000 
H      1.0     -5.0939000000    0.3719000000    1.2289000000 
 $END


