 $CONTRL SCFTYP=RHF RUNTYP=HESSIAN EXETYP=RUN
 MAXIT=200 ICHARG=0 MULT=1 ISPHER=1
 COORD=CART UNITS=ANGS $END
 $BASIS GBASIS=CCD $END
 $SYSTEM TIMLIM=1300 MWORDS=100 PARALL=.TRUE. $END
 $SCF DIRSCF=.TRUE. $END 
 $STATPT HESS=READ $END

 $DATA
bpy.mol
C1
C      6.0     -3.4129000000   -1.3449000000    0.7632000000 
C      6.0     -2.8180000000   -1.9028000000   -0.4236000000 
C      6.0     -1.5428000000   -1.6195000000   -0.7439000000 
C      6.0     -0.7043000000   -0.7037000000    0.0717000000 
N      7.0     -1.2756000000   -0.3832000000    1.3490000000 
C      6.0     -2.6274000000   -0.6470000000    1.5916000000 
C      6.0      0.4944000000   -0.2131000000   -0.3952000000 
C      6.0     -0.4176000000   -0.2287000000    2.5380000000 
C      6.0      1.2171000000   -0.8655000000   -1.5183000000 
C      6.0      2.4951000000   -0.5608000000   -1.8197000000 
C      6.0      3.2020000000    0.4520000000   -1.0718000000 
C      6.0      2.5179000000    1.1534000000   -0.1615000000 
N      7.0      1.1718000000    0.9328000000    0.1396000000 
C      6.0      0.4104000000    2.0977000000    0.6286000000 
C      6.0      3.1652000000   -1.2918000000   -2.9264000000 
O      8.0      4.3254000000   -1.0833000000   -3.2643000000 
H      1.0     -4.4539000000   -1.5424000000    0.9867000000 
H      1.0     -3.4243000000   -2.5504000000   -1.0472000000 
H      1.0     -1.1673000000   -2.0441000000   -1.6633000000 
H      1.0     -3.0017000000   -0.2648000000    2.5367000000 
H      1.0     -0.6508000000   -1.0088000000    3.2734000000 
H      1.0     -0.5994000000    0.7422000000    3.0102000000 
H      1.0      0.6501000000   -0.3251000000    2.3228000000 
H      1.0      0.7283000000   -1.6504000000   -2.0769000000 
H      1.0      4.2435000000    0.6564000000   -1.2934000000 
H      1.0      2.9789000000    1.9741000000    0.3809000000 
H      1.0      0.6582000000    2.2982000000    1.6758000000 
H      1.0      0.6724000000    2.9897000000    0.0460000000 
H      1.0     -0.6728000000    1.9823000000    0.5320000000 
H      1.0      2.5507000000   -2.0497000000   -3.4406000000 
 $END


