 $CONTRL SCFTYP=RHF RUNTYP=HESSIAN EXETYP=RUN
 MAXIT=200 ICHARG=0 MULT=1 ISPHER=1
 COORD=CART UNITS=ANGS $END
 $BASIS GBASIS=CCD $END
 $SYSTEM TIMLIM=1300 MWORDS=100 PARALL=.TRUE. $END
 $SCF DIRSCF=.TRUE. $END 
 $STATPT HESS=READ $END

 $DATA
bpy.mol
C1
C      6.0     -3.2229000000   -0.0159000000   -1.0175000000 
C      6.0     -2.9749000000   -0.0037000000    0.4086000000 
C      6.0     -1.7412000000   -0.2087000000    0.8912000000 
C      6.0     -0.6017000000   -0.4528000000   -0.0217000000 
N      7.0     -1.0099000000   -0.9462000000   -1.2931000000 
C      6.0     -2.2626000000   -0.5426000000   -1.7894000000 
C      6.0      0.7024000000   -0.1907000000    0.3215000000 
C      6.0     -0.6043000000   -2.3239000000   -1.6454000000 
C      6.0      1.0801000000    0.0089000000    1.7431000000 
C      6.0      2.3660000000    0.1323000000    2.1252000000 
C      6.0      3.4346000000    0.1909000000    1.1608000000 
C      6.0      3.1115000000    0.1171000000   -0.1295000000 
N      7.0      1.8057000000   -0.0734000000   -0.5991000000 
C      6.0      1.5940000000    0.0497000000   -2.0552000000 
N      7.0      2.6526000000    0.2466000000    3.5592000000 
O      8.0      1.7641000000   -0.0817000000    4.3637000000 
O      8.0      3.7778000000    0.6538000000    3.8813000000 
O      8.0     -4.0401000000    0.2384000000    1.2445000000 
H      1.0     -4.1759000000    0.2960000000   -1.4268000000 
H      1.0     -1.6136000000   -0.1848000000    1.9660000000 
H      1.0     -2.3968000000   -0.7107000000   -2.8528000000 
H      1.0     -1.3849000000   -3.0245000000   -1.2844000000 
H      1.0     -0.5215000000   -2.3910000000   -2.7462000000 
H      1.0      0.3749000000   -2.6342000000   -1.2234000000 
H      1.0      0.3099000000   -0.0245000000    2.5020000000 
H      1.0      4.4594000000    0.3867000000    1.4739000000 
H      1.0      3.8735000000    0.2386000000   -0.9012000000 
H      1.0      1.4438000000   -0.9355000000   -2.5073000000 
H      1.0      2.4755000000    0.4809000000   -2.5509000000 
H      1.0      0.7713000000    0.7247000000   -2.3032000000 
H      1.0     -4.7958000000    0.5164000000    0.7063000000 
 $END


