 $CONTRL COORD=CART UNITS=ANGS $END

 $DATA
bpy.mol
C1
C      6.0     -0.5511000000   -0.0522000000    3.1580000000 
C      6.0     -1.6858000000    0.0240000000    2.2578000000 
C      6.0     -1.4433000000    0.1064000000    0.9367000000 
C      6.0     -0.0849000000    0.2781000000    0.3846000000 
N      7.0      0.8876000000    0.6754000000    1.3552000000 
C      6.0      0.6661000000    0.2533000000    2.6775000000 
C      6.0      0.1938000000   -0.1283000000   -0.9021000000 
C      6.0      2.1350000000    1.3840000000    1.0345000000 
C      6.0     -0.4648000000   -1.3814000000   -1.3565000000 
C      6.0      0.2074000000   -2.2629000000   -2.1300000000 
C      6.0      1.4677000000   -1.8881000000   -2.7314000000 
C      6.0      1.9172000000   -0.6467000000   -2.5331000000 
N      7.0      1.2957000000    0.2789000000   -1.6957000000 
C      6.0      1.4206000000    1.7090000000   -2.0485000000 
C      6.0     -0.2903000000   -3.6510000000   -2.3037000000 
O      8.0     -0.7158000000   -4.1924000000   -1.1392000000 
O      8.0     -0.2379000000   -4.2790000000   -3.3458000000 
C      6.0     -3.0502000000   -0.0437000000    2.8629000000 
H      1.0     -0.7020000000   -0.3940000000    4.1797000000 
H      1.0     -2.2672000000    0.1237000000    0.2228000000 
H      1.0      1.5549000000    0.1345000000    3.2852000000 
H      1.0      1.8936000000    2.2704000000    0.4328000000 
H      1.0      2.5967000000    1.7764000000    1.9551000000 
H      1.0      2.8813000000    0.7534000000    0.5050000000 
H      1.0     -1.4058000000   -1.6672000000   -0.8934000000 
H      1.0      1.9773000000   -2.5962000000   -3.3705000000 
H      1.0      2.8070000000   -0.2761000000   -3.0392000000 
H      1.0      0.5811000000    2.2945000000   -1.6774000000 
H      1.0      1.4469000000    1.8449000000   -3.1384000000 
H      1.0      2.3471000000    2.1307000000   -1.6513000000 
H      1.0     -0.6187000000   -3.6172000000   -0.3578000000 
H      1.0     -3.1709000000   -0.9745000000    3.4267000000 
H      1.0     -3.8386000000   -0.0084000000    2.1011000000 
H      1.0     -3.2122000000    0.8053000000    3.5385000000 
 $END


