 $CONTRL SCFTYP=RHF RUNTYP=HESSIAN EXETYP=RUN
 MAXIT=200 ICHARG=-2 MULT=1 ISPHER=1
 COORD=CART UNITS=ANGS $END
 $BASIS GBASIS=CCD $END
 $SYSTEM TIMLIM=1300 MWORDS=100 PARALL=.TRUE. $END
 $SCF DIRSCF=.TRUE. $END 
 $STATPT HESS=READ $END

 $DATA
bpy.mol
C1
C      6.0     -3.1820000000   -1.8108000000    2.2475000000 
C      6.0     -1.8817000000   -2.0928000000    2.8016000000 
C      6.0     -0.7692000000   -1.7479000000    2.1326000000 
C      6.0     -0.8218000000   -1.0201000000    0.8446000000 
N      7.0     -2.0983000000   -1.1356000000    0.1991000000 
C      6.0     -3.2340000000   -1.3913000000    0.9765000000 
C      6.0      0.2921000000   -0.3567000000    0.3839000000 
C      6.0     -2.2257000000   -1.3503000000   -1.2512000000 
C      6.0      0.2332000000    0.3857000000   -0.8974000000 
C      6.0      1.3242000000    0.7435000000   -1.6081000000 
C      6.0      2.6220000000    0.3974000000   -1.0551000000 
C      6.0      2.6910000000   -0.0255000000    0.2143000000 
N      7.0      1.5703000000   -0.2525000000    1.0166000000 
C      6.0      1.7307000000   -0.0465000000    2.4617000000 
N      7.0      1.2369000000    1.4293000000   -2.8099000000 
C      6.0      2.2929000000    2.2030000000   -3.4269000000 
Cl    17.0     -1.7962000000   -2.9186000000    4.3108000000 
H      1.0     -4.0773000000   -2.0115000000    2.8218000000 
H      1.0      0.1953000000   -2.0327000000    2.5280000000 
H      1.0     -4.1801000000   -1.2515000000    0.4619000000 
H      1.0     -2.9471000000   -2.1500000000   -1.4611000000 
H      1.0     -1.2837000000   -1.6684000000   -1.7095000000 
H      1.0     -2.5896000000   -0.4419000000   -1.7417000000 
H      1.0     -0.7419000000    0.6836000000   -1.2554000000 
H      1.0      3.5213000000    0.5418000000   -1.6373000000 
H      1.0      3.6445000000   -0.2051000000    0.7012000000 
H      1.0      0.8022000000    0.2816000000    2.9402000000 
H      1.0      2.4669000000    0.7426000000    2.6599000000 
H      1.0      2.0921000000   -0.9616000000    2.9415000000 
H      1.0      0.3060000000    1.7975000000   -2.9860000000 
H      1.0      1.9179000000    2.6678000000   -4.3440000000 
H      1.0      2.6358000000    2.9988000000   -2.7582000000 
H      1.0      3.1408000000    1.5684000000   -3.7017000000 
 $END


