 $CONTRL SCFTYP=RHF RUNTYP=HESSIAN EXETYP=RUN
 MAXIT=200 ICHARG=-2 MULT=1 ISPHER=1
 COORD=CART UNITS=ANGS $END
 $BASIS GBASIS=CCD $END
 $SYSTEM TIMLIM=1300 MWORDS=100 PARALL=.TRUE. $END
 $SCF DIRSCF=.TRUE. $END 
 $STATPT HESS=READ $END

 $DATA
bpy.mol
C1
C      6.0     -1.4236000000    0.3874000000    2.5292000000 
C      6.0      0.0226000000    0.4388000000    2.4275000000 
C      6.0      0.5873000000    0.0303000000    1.2693000000 
C      6.0     -0.1868000000   -0.4183000000    0.0829000000 
N      7.0     -1.5759000000   -0.6384000000    0.3486000000 
C      6.0     -2.1331000000   -0.1494000000    1.5296000000 
C      6.0      0.4073000000   -0.5739000000   -1.1495000000 
C      6.0     -2.3021000000   -1.7389000000   -0.3109000000 
C      6.0      1.8782000000   -0.7420000000   -1.2880000000 
C      6.0      2.4437000000   -1.1318000000   -2.4448000000 
C      6.0      1.6448000000   -1.3684000000   -3.6146000000 
C      6.0      0.3385000000   -1.0871000000   -3.5486000000 
N      7.0     -0.3011000000   -0.6138000000   -2.3986000000 
C      6.0     -1.5003000000    0.2170000000   -2.6110000000 
O      8.0      3.7879000000   -1.3485000000   -2.6158000000 
N      7.0      0.7779000000    0.8953000000    3.4969000000 
C      6.0      0.3008000000    1.6619000000    4.6264000000 
H      1.0     -1.9215000000    0.7293000000    3.4258000000 
H      1.0      1.6620000000    0.0992000000    1.2002000000 
H      1.0     -3.2098000000   -0.2673000000    1.6064000000 
H      1.0     -3.1977000000   -1.3535000000   -0.8091000000 
H      1.0     -2.6235000000   -2.4771000000    0.4344000000 
H      1.0     -1.6994000000   -2.2877000000   -1.0397000000 
H      1.0      2.5174000000   -0.6172000000   -0.4282000000 
H      1.0      2.1150000000   -1.7206000000   -4.5236000000 
H      1.0     -0.3026000000   -1.1837000000   -4.4197000000 
H      1.0     -2.3570000000   -0.4149000000   -2.8658000000 
H      1.0     -1.7576000000    0.8399000000   -1.7497000000 
H      1.0     -1.3359000000    0.9098000000   -3.4458000000 
H      1.0      4.2315000000   -1.1705000000   -1.7706000000 
H      1.0      1.7510000000    1.0668000000    3.2611000000 
H      1.0     -0.4315000000    1.0947000000    5.2090000000 
H      1.0     -0.1475000000    2.6044000000    4.2971000000 
H      1.0      1.1389000000    1.8979000000    5.2896000000 
 $END


