 $CONTRL SCFTYP=RHF RUNTYP=HESSIAN EXETYP=RUN
 MAXIT=200 ICHARG=-2 MULT=1 ISPHER=1
 COORD=CART UNITS=ANGS $END
 $BASIS GBASIS=CCD $END
 $SYSTEM TIMLIM=1300 MWORDS=100 PARALL=.TRUE. $END
 $SCF DIRSCF=.TRUE. $END 
 $STATPT HESS=READ $END

 $DATA
bpy.mol
C1
C      6.0      0.1833000000    0.1662000000   -3.3792000000 
C      6.0     -0.7359000000   -0.7863000000   -2.7974000000 
C      6.0     -0.8307000000   -0.8901000000   -1.4578000000 
C      6.0     -0.0187000000   -0.0704000000   -0.5257000000 
N      7.0      0.7772000000    0.9343000000   -1.1656000000 
C      6.0      0.8768000000    0.9641000000   -2.5592000000 
C      6.0     -0.0194000000   -0.4071000000    0.8065000000 
C      6.0      1.1889000000    2.1578000000   -0.4523000000 
C      6.0      1.1995000000   -0.1336000000    1.6073000000 
C      6.0      1.3800000000   -0.6212000000    2.8464000000 
C      6.0      0.3657000000   -1.4395000000    3.4570000000 
C      6.0     -0.7729000000   -1.6439000000    2.7842000000 
N      7.0     -1.0438000000   -1.1188000000    1.5152000000 
C      6.0     -2.4673000000   -0.9745000000    1.1611000000 
C      6.0     -1.4994000000   -1.6311000000   -3.6539000000 
N      7.0     -2.1274000000   -2.3142000000   -4.3515000000 
H      1.0      0.2883000000    0.2329000000   -4.4565000000 
H      1.0     -1.4512000000   -1.6765000000   -1.0444000000 
H      1.0      1.5548000000    1.7171000000   -2.9524000000 
H      1.0      0.9713000000    3.0488000000   -1.0544000000 
H      1.0      0.6519000000    2.2952000000    0.4919000000 
H      1.0      2.2667000000    2.1397000000   -0.2613000000 
H      1.0      2.0292000000    0.3874000000    1.1489000000 
H      1.0      2.3019000000   -0.4489000000    3.3901000000 
H      1.0      0.5340000000   -1.8563000000    4.4423000000 
H      1.0     -1.5814000000   -2.2254000000    3.2183000000 
H      1.0     -2.6443000000   -0.1613000000    0.4497000000 
H      1.0     -2.8495000000   -1.9118000000    0.7438000000 
H      1.0     -3.0653000000   -0.7341000000    2.0490000000 
 $END


