 $CONTRL SCFTYP=RHF RUNTYP=HESSIAN EXETYP=RUN
 MAXIT=200 ICHARG=-2 MULT=1 ISPHER=1
 COORD=CART UNITS=ANGS $END
 $BASIS GBASIS=CCD $END
 $SYSTEM TIMLIM=1300 MWORDS=100 PARALL=.TRUE. $END
 $SCF DIRSCF=.TRUE. $END 
 $STATPT HESS=READ $END

 $DATA
bpy.mol
C1
C      6.0     -3.2449000000   -1.9785000000   -0.8647000000 
C      6.0     -2.7782000000   -1.9908000000    0.4937000000 
C      6.0     -1.6298000000   -1.3793000000    0.8360000000 
C      6.0     -0.7723000000   -0.7005000000   -0.1715000000 
N      7.0     -1.4077000000   -0.5221000000   -1.4467000000 
C      6.0     -2.5671000000   -1.2422000000   -1.7528000000 
C      6.0      0.5159000000   -0.3124000000    0.1212000000 
C      6.0     -1.1738000000    0.7006000000   -2.2371000000 
C      6.0      0.9831000000   -0.1624000000    1.5223000000 
C      6.0      2.1438000000    0.4492000000    1.8394000000 
C      6.0      2.9999000000    0.9565000000    0.7881000000 
C      6.0      2.6679000000    0.6935000000   -0.4808000000 
N      7.0      1.5180000000   -0.0033000000   -0.8566000000 
C      6.0      1.5883000000   -0.7516000000   -2.1259000000 
C      6.0      2.4816000000    0.5800000000    3.2770000000 
O      8.0      3.6523000000    1.2103000000    3.4862000000 
O      8.0      1.8157000000    0.1816000000    4.2179000000 
O      8.0     -3.5860000000   -2.6691000000    1.3712000000 
H      1.0     -4.1483000000   -2.5141000000   -1.1267000000 
H      1.0     -1.3089000000   -1.4454000000    1.8639000000 
H      1.0     -2.9127000000   -1.1358000000   -2.7767000000 
H      1.0     -2.1048000000    1.2741000000   -2.3259000000 
H      1.0     -0.8433000000    0.4386000000   -3.2474000000 
H      1.0     -0.4420000000    1.3783000000   -1.7889000000 
H      1.0      0.3536000000   -0.4999000000    2.3343000000 
H      1.0      3.9088000000    1.4914000000    1.0358000000 
H      1.0      3.3104000000    0.9901000000   -1.3051000000 
H      1.0      0.8311000000   -1.5359000000   -2.2119000000 
H      1.0      2.5582000000   -1.2575000000   -2.2112000000 
H      1.0      1.4941000000   -0.0661000000   -2.9741000000 
H      1.0      3.7356000000    1.2191000000    4.4621000000 
H      1.0     -3.1864000000   -2.6131000000    2.2546000000 
 $END


