 $CONTRL SCFTYP=RHF RUNTYP=HESSIAN EXETYP=RUN
 MAXIT=200 ICHARG=-2 MULT=1 ISPHER=1
 COORD=CART UNITS=ANGS $END
 $BASIS GBASIS=CCD $END
 $SYSTEM TIMLIM=1300 MWORDS=100 PARALL=.TRUE. $END
 $SCF DIRSCF=.TRUE. $END 
 $STATPT HESS=READ $END

 $DATA
bpy.mol
C1
C      6.0     -0.5066000000   -0.7391000000    3.4875000000 
C      6.0     -1.2442000000   -1.6536000000    2.6547000000 
C      6.0     -1.1226000000   -1.6046000000    1.3162000000 
C      6.0     -0.2672000000   -0.6012000000    0.6325000000 
N      7.0      0.6099000000    0.1092000000    1.5203000000 
C      6.0      0.3864000000    0.0660000000    2.9000000000 
C      6.0     -0.3496000000   -0.3902000000   -0.7254000000 
C      6.0      1.9657000000    0.4912000000    1.0876000000 
C      6.0     -0.9690000000   -1.3912000000   -1.6310000000 
C      6.0     -0.8382000000   -1.3296000000   -2.9681000000 
C      6.0     -0.1082000000   -0.2494000000   -3.5801000000 
C      6.0      0.3222000000    0.7438000000   -2.7933000000 
N      7.0      0.1505000000    0.7713000000   -1.4058000000 
C      6.0      0.0562000000    2.1035000000   -0.7832000000 
H      1.0     -0.6471000000   -0.7571000000    4.5609000000 
H      1.0     -1.8961000000   -2.3756000000    3.1333000000 
H      1.0     -1.7238000000   -2.2965000000    0.7444000000 
H      1.0      1.0229000000    0.7246000000    3.4832000000 
H      1.0      2.1922000000    0.2066000000    0.0563000000 
H      1.0      2.7154000000   -0.0108000000    1.7118000000 
H      1.0      2.1069000000    1.5711000000    1.1991000000 
H      1.0     -1.5022000000   -2.2409000000   -1.2300000000 
H      1.0     -1.2743000000   -2.0863000000   -3.6106000000 
H      1.0      0.0299000000   -0.2347000000   -4.6538000000 
H      1.0      0.8142000000    1.6191000000   -3.2067000000 
H      1.0      1.0479000000    2.5633000000   -0.7242000000 
H      1.0     -0.5811000000    2.7584000000   -1.3905000000 
H      1.0     -0.3903000000    2.0892000000    0.2149000000 
 $END


