 $CONTRL SCFTYP=RHF RUNTYP=HESSIAN EXETYP=RUN
 MAXIT=200 ICHARG=-2 MULT=1 ISPHER=1
 COORD=CART UNITS=ANGS $END
 $BASIS GBASIS=CCD $END
 $SYSTEM TIMLIM=1300 MWORDS=100 PARALL=.TRUE. $END
 $SCF DIRSCF=.TRUE. $END 
 $STATPT HESS=READ $END

 $DATA
bpy.mol
C1
C      6.0     -3.1538000000   -2.1283000000    0.7655000000 
C      6.0     -3.0343000000   -1.5602000000   -0.5519000000 
C      6.0     -1.9036000000   -0.9429000000   -0.9363000000 
C      6.0     -0.7452000000   -0.7817000000   -0.0223000000 
N      7.0     -0.8425000000   -1.5651000000    1.1763000000 
C      6.0     -2.0682000000   -2.1251000000    1.5476000000 
C      6.0      0.2980000000    0.0647000000   -0.3229000000 
C      6.0      0.3611000000   -2.1620000000    1.7868000000 
C      6.0      0.5482000000    0.5299000000   -1.7127000000 
C      6.0      1.6989000000    1.1358000000   -2.0672000000 
C      6.0      2.7255000000    1.3893000000   -1.0839000000 
C      6.0      2.4503000000    1.1184000000    0.1964000000 
N      7.0      1.2453000000    0.5614000000    0.6322000000 
C      6.0      0.8197000000    0.9178000000    1.9994000000 
C      6.0      1.8968000000    1.5285000000   -3.4869000000 
O      8.0      2.9141000000    2.0770000000   -3.8964000000 
Cl    17.0     -4.3863000000   -1.6831000000   -1.6150000000 
H      1.0     -4.0839000000   -2.5833000000    1.0822000000 
H      1.0     -1.8870000000   -0.5070000000   -1.9242000000 
H      1.0     -2.0749000000   -2.5995000000    2.5249000000 
H      1.0      0.2744000000   -3.2557000000    1.7967000000 
H      1.0      1.2828000000   -1.9375000000    1.2430000000 
H      1.0      0.4648000000   -1.8255000000    2.8232000000 
H      1.0     -0.1841000000    0.3272000000   -2.4809000000 
H      1.0      3.6654000000    1.8355000000   -1.3895000000 
H      1.0      3.1565000000    1.3558000000    0.9872000000 
H      1.0     -0.2387000000    0.7221000000    2.1924000000 
H      1.0      1.4228000000    0.3761000000    2.7352000000 
H      1.0      0.9661000000    1.9916000000    2.1700000000 
H      1.0      1.0619000000    1.2957000000   -4.1690000000 
 $END


