 $CONTRL SCFTYP=RHF RUNTYP=HESSIAN EXETYP=RUN
 MAXIT=200 ICHARG=-2 MULT=1 ISPHER=1
 COORD=CART UNITS=ANGS $END
 $BASIS GBASIS=CCD $END
 $SYSTEM TIMLIM=1300 MWORDS=100 PARALL=.TRUE. $END
 $SCF DIRSCF=.TRUE. $END 
 $STATPT HESS=READ $END

 $DATA
bpy.mol
C1
C      6.0     -3.3621000000   -0.4107000000   -0.9953000000 
C      6.0     -3.0663000000   -0.0567000000    0.3693000000 
C      6.0     -1.8045000000   -0.0702000000    0.8273000000 
C      6.0     -0.6534000000   -0.4077000000   -0.0451000000 
N      7.0     -1.0327000000   -0.9810000000   -1.3056000000 
C      6.0     -2.3549000000   -0.8701000000   -1.7487000000 
C      6.0      0.6437000000   -0.1596000000    0.3426000000 
C      6.0     -0.2356000000   -2.0682000000   -1.9044000000 
C      6.0      0.9985000000    0.0670000000    1.7669000000 
C      6.0      2.2817000000    0.0508000000    2.1802000000 
C      6.0      3.3704000000   -0.1508000000    1.2516000000 
C      6.0      3.0688000000   -0.1958000000   -0.0507000000 
N      7.0      1.7673000000   -0.1063000000   -0.5489000000 
C      6.0      1.6215000000    0.4449000000   -1.9111000000 
N      7.0      2.5520000000    0.2361000000    3.6098000000 
O      8.0      1.5951000000    0.4100000000    4.3790000000 
O      8.0      3.7381000000    0.2078000000    3.9705000000 
O      8.0     -4.1163000000    0.3014000000    1.1815000000 
H      1.0     -4.3693000000   -0.3532000000   -1.3853000000 
H      1.0     -1.6613000000    0.2366000000    1.8534000000 
H      1.0     -2.5226000000   -1.2212000000   -2.7628000000 
H      1.0     -0.8210000000   -2.9958000000   -1.9231000000 
H      1.0      0.0288000000   -1.8164000000   -2.9367000000 
H      1.0      0.6790000000   -2.2968000000   -1.3507000000 
H      1.0      0.2071000000    0.1923000000    2.4930000000 
H      1.0      4.3946000000   -0.2116000000    1.6007000000 
H      1.0      3.8437000000   -0.2747000000   -0.8087000000 
H      1.0      1.8861000000   -0.3123000000   -2.6557000000 
H      1.0      2.2989000000    1.2973000000   -2.0461000000 
H      1.0      0.6169000000    0.8226000000   -2.1216000000 
H      1.0     -4.9409000000    0.2283000000    0.6748000000 
 $END


