 $CONTRL SCFTYP=RHF RUNTYP=HESSIAN EXETYP=RUN
 MAXIT=200 ICHARG=-2 MULT=1 ISPHER=1
 COORD=CART UNITS=ANGS $END
 $BASIS GBASIS=CCD $END
 $SYSTEM TIMLIM=1300 MWORDS=100 PARALL=.TRUE. $END
 $SCF DIRSCF=.TRUE. $END 
 $STATPT HESS=READ $END

 $DATA
bpy.mol
C1
C      6.0      0.7332000000   -3.6548000000   -1.1263000000 
C      6.0      0.4379000000   -3.4421000000    0.2710000000 
C      6.0      0.0916000000   -2.2182000000    0.7178000000 
C      6.0      0.0345000000   -1.0369000000   -0.1835000000 
N      7.0      0.1054000000   -1.3694000000   -1.5766000000 
C      6.0      0.5365000000   -2.6380000000   -1.9721000000 
C      6.0     -0.0574000000    0.2456000000    0.3095000000 
C      6.0     -0.6616000000   -0.6007000000   -2.5762000000 
C      6.0     -0.5307000000    0.5192000000    1.6923000000 
C      6.0     -0.8700000000    1.7588000000    2.0996000000 
C      6.0     -0.7471000000    2.8833000000    1.2024000000 
C      6.0     -0.1789000000    2.6767000000    0.0097000000 
N      7.0      0.2615000000    1.4282000000   -0.4363000000 
C      6.0      1.3850000000    1.4371000000   -1.3933000000 
C      6.0     -1.3828000000    1.9470000000    3.4820000000 
O      8.0     -1.7193000000    3.0369000000    3.9313000000 
C      6.0      0.5221000000   -4.5653000000    1.2410000000 
O      8.0      0.8344000000   -5.7070000000    0.9217000000 
H      1.0      1.0549000000   -4.6329000000   -1.4663000000 
H      1.0     -0.0883000000   -2.0903000000    1.7751000000 
H      1.0      0.6740000000   -2.7610000000   -3.0429000000 
H      1.0     -1.3909000000   -1.2530000000   -3.0724000000 
H      1.0      0.0104000000   -0.2047000000   -3.3443000000 
H      1.0     -1.2371000000    0.2232000000   -2.1453000000 
H      1.0     -0.6689000000   -0.3022000000    2.3799000000 
H      1.0     -1.0659000000    3.8681000000    1.5258000000 
H      1.0      0.0040000000    3.4983000000   -0.6774000000 
H      1.0      2.1462000000    2.1589000000   -1.0719000000 
H      1.0      1.8969000000    0.4742000000   -1.4744000000 
H      1.0      1.0337000000    1.7404000000   -2.3848000000 
H      1.0     -1.4466000000    1.0340000000    4.0974000000 
H      1.0      0.2834000000   -4.3127000000    2.2877000000 
 $END


