 $CONTRL SCFTYP=RHF RUNTYP=HESSIAN EXETYP=RUN
 MAXIT=200 ICHARG=-2 MULT=1 ISPHER=1
 COORD=CART UNITS=ANGS $END
 $BASIS GBASIS=CCD $END
 $SYSTEM TIMLIM=1300 MWORDS=100 PARALL=.TRUE. $END
 $SCF DIRSCF=.TRUE. $END 
 $STATPT HESS=READ $END

 $DATA
bpy.mol
C1
C      6.0      1.7322000000   -2.7930000000    2.1142000000 
C      6.0      0.3719000000   -2.4272000000    2.3981000000 
C      6.0     -0.2303000000   -1.4492000000    1.6999000000 
C      6.0      0.4517000000   -0.7438000000    0.5852000000 
N      7.0      1.8786000000   -0.8885000000    0.6332000000 
C      6.0      2.4268000000   -1.9986000000    1.2896000000 
C      6.0     -0.3007000000   -0.0302000000   -0.3197000000 
C      6.0      2.8093000000    0.1915000000    0.2754000000 
C      6.0      0.3520000000    0.7157000000   -1.4167000000 
C      6.0     -0.2666000000    1.7196000000   -2.0666000000 
C      6.0     -1.6372000000    2.0524000000   -1.7457000000 
C      6.0     -2.3096000000    1.2075000000   -0.9529000000 
N      7.0     -1.7311000000    0.0816000000   -0.3568000000 
C      6.0     -2.6056000000   -1.0861000000   -0.1601000000 
C      6.0      0.4621000000    2.4466000000   -3.1383000000 
O      8.0      1.6407000000    2.2551000000   -3.4162000000 
O      8.0     -0.2092000000   -3.1157000000    3.4318000000 
H      1.0      2.1809000000   -3.6378000000    2.6202000000 
H      1.0     -1.2279000000   -1.1339000000    1.9683000000 
H      1.0      3.4839000000   -2.1643000000    1.1037000000 
H      1.0      2.3335000000    1.1767000000    0.3126000000 
H      1.0      3.6424000000    0.2368000000    0.9882000000 
H      1.0      3.2380000000    0.0168000000   -0.7164000000 
H      1.0      1.3483000000    0.4225000000   -1.7196000000 
H      1.0     -2.1176000000    2.9113000000   -2.1974000000 
H      1.0     -3.3684000000    1.3368000000   -0.7472000000 
H      1.0     -2.0538000000   -2.0312000000   -0.1905000000 
H      1.0     -3.3540000000   -1.1462000000   -0.9601000000 
H      1.0     -3.1422000000   -1.0040000000    0.7906000000 
H      1.0     -0.1367000000    3.1972000000   -3.6809000000 
H      1.0     -1.0967000000   -2.7487000000    3.5743000000 
 $END


