 $CONTRL SCFTYP=RHF RUNTYP=HESSIAN EXETYP=RUN
 MAXIT=200 ICHARG=-2 MULT=1 ISPHER=1
 COORD=CART UNITS=ANGS $END
 $BASIS GBASIS=CCD $END
 $SYSTEM TIMLIM=1300 MWORDS=100 PARALL=.TRUE. $END
 $SCF DIRSCF=.TRUE. $END 
 $STATPT HESS=READ $END

 $DATA
bpy.mol
C1
C      6.0     -3.0036000000   -1.0936000000   -2.0328000000 
C      6.0     -2.4151000000   -2.0721000000   -1.1489000000 
C      6.0     -1.3523000000   -1.7511000000   -0.3826000000 
C      6.0     -0.7468000000   -0.3957000000   -0.4028000000 
N      7.0     -1.5464000000    0.5787000000   -1.0888000000 
C      6.0     -2.5697000000    0.1685000000   -1.9460000000 
C      6.0      0.4687000000   -0.1385000000    0.1902000000 
C      6.0     -1.5654000000    1.9883000000   -0.6574000000 
C      6.0      1.0616000000   -1.0583000000    1.1954000000 
C      6.0      2.0890000000   -0.7000000000    1.9932000000 
C      6.0      2.6750000000    0.6164000000    1.8501000000 
C      6.0      2.2681000000    1.3869000000    0.8346000000 
N      7.0      1.2660000000    1.0236000000   -0.0687000000 
C      6.0      1.4261000000    1.5210000000   -1.4483000000 
C      6.0      2.6750000000   -1.5989000000    3.0385000000 
C      6.0     -2.9604000000   -3.4480000000   -1.1053000000 
O      8.0     -3.2658000000   -3.8430000000    0.1512000000 
O      8.0     -3.1574000000   -4.1348000000   -2.0931000000 
H      1.0     -3.7977000000   -1.3877000000   -2.7098000000 
H      1.0     -0.8963000000   -2.5341000000    0.2079000000 
H      1.0     -3.0167000000    0.9626000000   -2.5377000000 
H      1.0     -2.5974000000    2.3125000000   -0.4733000000 
H      1.0     -1.0263000000    2.1598000000    0.2788000000 
H      1.0     -1.1514000000    2.6316000000   -1.4397000000 
H      1.0      0.6397000000   -2.0415000000    1.3441000000 
H      1.0      3.4654000000    0.9352000000    2.5193000000 
H      1.0      2.7323000000    2.3479000000    0.6337000000 
H      1.0      0.7527000000    1.0463000000   -2.1670000000 
H      1.0      2.4449000000    1.3208000000   -1.8020000000 
H      1.0      1.2640000000    2.6037000000   -1.4791000000 
H      1.0      3.7360000000   -1.7822000000    2.8377000000 
H      1.0      2.5826000000   -1.1460000000    4.0315000000 
H      1.0      2.1715000000   -2.5711000000    3.0701000000 
H      1.0     -3.1876000000   -3.1237000000    0.8070000000 
 $END


