 $CONTRL SCFTYP=RHF RUNTYP=HESSIAN EXETYP=RUN
 MAXIT=200 ICHARG=-2 MULT=1 ISPHER=1
 COORD=CART UNITS=ANGS $END
 $BASIS GBASIS=CCD $END
 $SYSTEM TIMLIM=1300 MWORDS=100 PARALL=.TRUE. $END
 $SCF DIRSCF=.TRUE. $END 
 $STATPT HESS=READ $END

 $DATA
bpy.mol
C1
C      6.0     -2.4647000000   -3.0455000000    0.2531000000 
C      6.0     -2.5617000000   -1.9020000000    1.1314000000 
C      6.0     -1.6352000000   -0.9223000000    1.1160000000 
C      6.0     -0.4936000000   -0.9560000000    0.1660000000 
N      7.0     -0.3238000000   -2.2217000000   -0.4893000000 
C      6.0     -1.3565000000   -3.1617000000   -0.4865000000 
C      6.0      0.2980000000    0.1490000000   -0.0523000000 
C      6.0      1.0264000000   -2.7333000000   -0.7997000000 
C      6.0      0.3383000000    1.2820000000    0.9058000000 
C      6.0      1.2912000000    2.2337000000    0.8501000000 
C      6.0      2.2978000000    2.2016000000   -0.1860000000 
C      6.0      2.1766000000    1.2803000000   -1.1487000000 
N      7.0      1.1636000000    0.3191000000   -1.1838000000 
C      6.0      0.7485000000   -0.1418000000   -2.5231000000 
C      6.0      1.2995000000    3.3141000000    1.8729000000 
O      8.0      0.4872000000    3.3985000000    2.7866000000 
N      7.0     -3.6879000000   -1.7784000000    2.0630000000 
O      8.0     -4.5242000000   -2.6941000000    2.0652000000 
O      8.0     -3.7495000000   -0.7782000000    2.7927000000 
H      1.0     -3.2404000000   -3.8022000000    0.2383000000 
H      1.0     -1.7549000000   -0.0684000000    1.7690000000 
H      1.0     -1.1842000000   -4.0319000000   -1.1148000000 
H      1.0      1.1228000000   -2.9171000000   -1.8744000000 
H      1.0      1.1956000000   -3.6849000000   -0.2807000000 
H      1.0      1.8298000000   -2.0658000000   -0.4757000000 
H      1.0     -0.3763000000    1.3352000000    1.7171000000 
H      1.0      3.0935000000    2.9361000000   -0.2041000000 
H      1.0      2.8593000000    1.2512000000   -1.9936000000 
H      1.0      0.6391000000    0.7165000000   -3.1976000000 
H      1.0      1.5094000000   -0.8060000000   -2.9456000000 
H      1.0     -0.2160000000   -0.6568000000   -2.5287000000 
H      1.0      2.1058000000    4.0577000000    1.7574000000 
 $END


