 $CONTRL SCFTYP=RHF RUNTYP=HESSIAN EXETYP=RUN
 MAXIT=200 ICHARG=-2 MULT=1 ISPHER=1
 COORD=CART UNITS=ANGS $END
 $BASIS GBASIS=CCD $END
 $SYSTEM TIMLIM=1300 MWORDS=100 PARALL=.TRUE. $END
 $SCF DIRSCF=.TRUE. $END 
 $STATPT HESS=READ $END

 $DATA
bpy.mol
C1
C      6.0     -1.6986000000    0.6812000000   -3.2906000000 
C      6.0     -2.2793000000    1.1675000000   -2.0579000000 
C      6.0     -1.6846000000    0.8925000000   -0.8792000000 
C      6.0     -0.4550000000    0.0669000000   -0.7798000000 
N      7.0      0.1809000000   -0.1717000000   -2.0431000000 
C      6.0     -0.5112000000    0.0677000000   -3.2314000000 
C      6.0     -0.0064000000   -0.4168000000    0.4287000000 
C      6.0      1.6502000000   -0.2625000000   -2.1424000000 
C      6.0     -0.4539000000    0.1687000000    1.7192000000 
C      6.0      0.1587000000   -0.0959000000    2.8919000000 
C      6.0      1.2771000000   -1.0146000000    2.9187000000 
C      6.0      1.5882000000   -1.6721000000    1.7957000000 
N      7.0      0.9314000000   -1.4911000000    0.5762000000 
C      6.0      0.8667000000   -2.6686000000   -0.3086000000 
C      6.0     -0.2523000000    0.5195000000    4.1944000000 
C      6.0     -3.4846000000    1.9264000000   -2.1113000000 
N      7.0     -4.4665000000    2.5442000000   -2.1541000000 
H      1.0     -2.1986000000    0.8584000000   -4.2362000000 
H      1.0     -2.1674000000    1.2479000000    0.0214000000 
H      1.0      0.0033000000   -0.2569000000   -4.1317000000 
H      1.0      2.1619000000   -0.0808000000   -1.1930000000 
H      1.0      2.0283000000    0.4967000000   -2.8384000000 
H      1.0      1.9432000000   -1.2436000000   -2.5290000000 
H      1.0     -1.2654000000    0.8819000000    1.7359000000 
H      1.0      1.8084000000   -1.1967000000    3.8454000000 
H      1.0      2.3695000000   -2.4263000000    1.7824000000 
H      1.0      0.5735000000   -3.5550000000    0.2676000000 
H      1.0      0.1329000000   -2.5725000000   -1.1135000000 
H      1.0      1.8502000000   -2.8635000000   -0.7486000000 
H      1.0     -1.1041000000    1.1976000000    4.0754000000 
H      1.0      0.5729000000    1.0970000000    4.6248000000 
H      1.0     -0.5444000000   -0.2557000000    4.9109000000 
 $END


