 $CONTRL SCFTYP=RHF RUNTYP=HESSIAN EXETYP=RUN
 MAXIT=200 ICHARG=-2 MULT=1 ISPHER=1
 COORD=CART UNITS=ANGS $END
 $BASIS GBASIS=CCD $END
 $SYSTEM TIMLIM=1300 MWORDS=100 PARALL=.TRUE. $END
 $SCF DIRSCF=.TRUE. $END 
 $STATPT HESS=READ $END

 $DATA
bpy.mol
C1
C      6.0     -3.0740000000   -1.8678000000   -1.8522000000 
C      6.0     -2.3679000000   -2.5205000000   -0.7738000000 
C      6.0     -1.3332000000   -1.9248000000   -0.1477000000 
C      6.0     -0.8481000000   -0.5837000000   -0.5616000000 
N      7.0     -1.7394000000    0.1004000000   -1.4560000000 
C      6.0     -2.7469000000   -0.5994000000   -2.1228000000 
C      6.0      0.3520000000   -0.0785000000   -0.1135000000 
C      6.0     -1.8749000000    1.5700000000   -1.4084000000 
C      6.0      1.0403000000   -0.6334000000    1.0808000000 
C      6.0      2.0484000000   -0.0048000000    1.7241000000 
C      6.0      2.5146000000    1.2579000000    1.1798000000 
C      6.0      2.0270000000    1.6883000000    0.0104000000 
N      7.0      1.0391000000    1.0228000000   -0.7157000000 
C      6.0      1.1290000000    1.1334000000   -2.1838000000 
N      7.0      2.6875000000   -0.4638000000    2.8640000000 
C      6.0      2.2203000000   -1.5284000000    3.7263000000 
N      7.0     -2.7623000000   -3.8630000000   -0.3343000000 
O      8.0     -3.6931000000   -4.4091000000   -0.9448000000 
O      8.0     -2.1555000000   -4.3802000000    0.6160000000 
H      1.0     -3.8703000000   -2.3758000000   -2.3836000000 
H      1.0     -0.8126000000   -2.4547000000    0.6371000000 
H      1.0     -3.2825000000   -0.0246000000   -2.8739000000 
H      1.0     -1.3325000000    2.0266000000   -0.5754000000 
H      1.0     -1.5369000000    2.0131000000   -2.3501000000 
H      1.0     -2.9273000000    1.8475000000   -1.2695000000 
H      1.0      0.6978000000   -1.5654000000    1.5010000000 
H      1.0      3.2978000000    1.8074000000    1.6863000000 
H      1.0      2.4150000000    2.5842000000   -0.4651000000 
H      1.0      0.4824000000    0.4315000000   -2.7173000000 
H      1.0      0.8766000000    2.1510000000   -2.5005000000 
H      1.0      2.1533000000    0.9201000000   -2.5133000000 
H      1.0      3.2077000000    0.2596000000    3.3528000000 
H      1.0      2.1278000000   -2.4704000000    3.1767000000 
H      1.0      2.9383000000   -1.6856000000    4.5370000000 
H      1.0      1.2536000000   -1.2724000000    4.1711000000 
 $END


