 $CONTRL SCFTYP=RHF RUNTYP=HESSIAN EXETYP=RUN
 MAXIT=200 ICHARG=-2 MULT=1 ISPHER=1
 COORD=CART UNITS=ANGS $END
 $BASIS GBASIS=CCD $END
 $SYSTEM TIMLIM=1300 MWORDS=100 PARALL=.TRUE. $END
 $SCF DIRSCF=.TRUE. $END 
 $STATPT HESS=READ $END

 $DATA
bpy.mol
C1
C      6.0     -1.1092000000   -0.1658000000    3.3007000000 
C      6.0     -0.6809000000   -1.4451000000    2.8076000000 
C      6.0     -0.1802000000   -1.5753000000    1.5657000000 
C      6.0     -0.0814000000   -0.4208000000    0.6341000000 
N      7.0     -0.3087000000    0.8509000000    1.2611000000 
C      6.0     -0.8901000000    0.9071000000    2.5319000000 
C      6.0      0.1853000000   -0.5981000000   -0.7048000000 
C      6.0      0.4421000000    2.0450000000    0.8323000000 
C      6.0      0.7942000000   -1.8524000000   -1.2171000000 
C      6.0      1.2905000000   -1.9543000000   -2.4630000000 
C      6.0      1.2151000000   -0.8393000000   -3.3713000000 
C      6.0      0.5347000000    0.2448000000   -2.9810000000 
N      7.0     -0.0658000000    0.3800000000   -1.7254000000 
C      6.0     -1.2583000000    1.2440000000   -1.6599000000 
O      8.0     -0.8372000000   -2.4818000000    3.6928000000 
H      1.0     -1.5486000000   -0.0902000000    4.2870000000 
H      1.0      0.0954000000   -2.5625000000    1.2299000000 
H      1.0     -1.1288000000    1.9076000000    2.8800000000 
H      1.0      1.0540000000    2.4224000000    1.6611000000 
H      1.0      1.1353000000    1.8530000000    0.0087000000 
H      1.0     -0.2504000000    2.8405000000    0.5388000000 
H      1.0      0.9119000000   -2.7119000000   -0.5737000000 
H      1.0      1.7584000000   -2.8692000000   -2.8088000000 
H      1.0      1.6581000000   -0.9173000000   -4.3562000000 
H      1.0      0.3833000000    1.0874000000   -3.6492000000 
H      1.0     -0.9630000000    2.2975000000   -1.6963000000 
H      1.0     -1.9116000000    1.0491000000   -2.5195000000 
H      1.0     -1.8717000000    1.0761000000   -0.7704000000 
H      1.0     -0.5205000000   -3.2938000000    3.2649000000 
 $END


