 $CONTRL SCFTYP=RHF RUNTYP=HESSIAN EXETYP=RUN
 MAXIT=200 ICHARG=-2 MULT=1 ISPHER=1
 COORD=CART UNITS=ANGS $END
 $BASIS GBASIS=CCD $END
 $SYSTEM TIMLIM=1300 MWORDS=100 PARALL=.TRUE. $END
 $SCF DIRSCF=.TRUE. $END 
 $STATPT HESS=READ $END

 $DATA
bpy.mol
C1
C      6.0      1.3911000000    0.2422000000    3.3794000000 
C      6.0     -0.0434000000    0.3327000000    3.2145000000 
C      6.0     -0.5890000000    0.0259000000    2.0210000000 
C      6.0      0.2109000000   -0.3961000000    0.8434000000 
N      7.0      1.6079000000   -0.5740000000    1.1114000000 
C      6.0      2.1286000000   -0.1961000000    2.3522000000 
C      6.0     -0.4135000000   -0.4764000000   -0.3788000000 
C      6.0      2.4307000000   -1.4941000000    0.3064000000 
C      6.0      0.3871000000   -0.1967000000   -1.5982000000 
C      6.0     -0.1339000000   -0.0505000000   -2.8343000000 
C      6.0     -1.5696000000   -0.2008000000   -2.9788000000 
C      6.0     -2.3140000000   -0.5056000000   -1.9093000000 
N      7.0     -1.8058000000   -0.6989000000   -0.6237000000 
C      6.0     -2.6287000000   -1.5062000000    0.2934000000 
N      7.0      0.5802000000    0.2607000000   -3.9812000000 
C      6.0      1.9340000000    0.7733000000   -4.0088000000 
C      6.0     -0.8417000000    0.8148000000    4.3858000000 
H      1.0      1.8461000000    0.5131000000    4.3246000000 
H      1.0     -1.6491000000    0.1961000000    1.8852000000 
H      1.0      3.2047000000   -0.3091000000    2.4470000000 
H      1.0      1.8301000000   -2.1395000000   -0.3428000000 
H      1.0      3.1452000000   -0.9292000000   -0.3012000000 
H      1.0      3.0039000000   -2.1692000000    0.9542000000 
H      1.0      1.4402000000    0.0014000000   -1.4646000000 
H      1.0     -2.0270000000   -0.0880000000   -3.9534000000 
H      1.0     -3.3855000000   -0.6550000000   -2.0034000000 
H      1.0     -2.0280000000   -2.0608000000    1.0216000000 
H      1.0     -3.3438000000   -0.8670000000    0.8214000000 
H      1.0     -3.2015000000   -2.2610000000   -0.2598000000 
H      1.0     -0.0080000000    0.6353000000   -4.7206000000 
H      1.0      2.6313000000    0.0736000000   -3.5375000000 
H      1.0      1.9940000000    1.7413000000   -3.5017000000 
H      1.0      2.2522000000    0.9112000000   -5.0467000000 
H      1.0     -0.7190000000    0.1385000000    5.2386000000 
H      1.0     -1.9115000000    0.8672000000    4.1569000000 
H      1.0     -0.5180000000    1.8166000000    4.6877000000 
 $END


