 $CONTRL SCFTYP=RHF RUNTYP=HESSIAN EXETYP=RUN
 MAXIT=200 ICHARG=-2 MULT=1 ISPHER=1
 COORD=CART UNITS=ANGS $END
 $BASIS GBASIS=CCD $END
 $SYSTEM TIMLIM=1300 MWORDS=100 PARALL=.TRUE. $END
 $SCF DIRSCF=.TRUE. $END 
 $STATPT HESS=READ $END

 $DATA
bpy.mol
C1
C      6.0     -3.2759000000    0.6480000000   -1.3516000000 
C      6.0     -3.1362000000    0.3300000000    0.0529000000 
C      6.0     -1.9570000000   -0.1214000000    0.5268000000 
C      6.0     -0.7585000000   -0.2768000000   -0.3357000000 
N      7.0     -1.0426000000   -0.1769000000   -1.7376000000 
C      6.0     -2.2550000000    0.3648000000   -2.1684000000 
C      6.0      0.4945000000   -0.4813000000    0.1973000000 
C      6.0     -0.3065000000   -0.9998000000   -2.7170000000 
C      6.0      0.6810000000   -0.9613000000    1.5908000000 
C      6.0      1.8648000000   -1.4216000000    2.0499000000 
C      6.0      3.0181000000   -1.4197000000    1.1718000000 
C      6.0      2.9053000000   -0.8424000000   -0.0291000000 
N      7.0      1.7227000000   -0.2811000000   -0.5135000000 
C      6.0      1.8729000000    0.8456000000   -1.4541000000 
C      6.0      2.0167000000   -1.9398000000    3.4330000000 
O      8.0      0.8884000000   -1.8910000000    4.1649000000 
O      8.0      3.0468000000   -2.3809000000    3.9155000000 
C      6.0     -4.2542000000    0.5099000000    0.9187000000 
N      7.0     -5.1646000000    0.6570000000    1.6237000000 
H      1.0     -4.2066000000    1.0575000000   -1.7281000000 
H      1.0     -1.8873000000   -0.3190000000    1.5885000000 
H      1.0     -2.3305000000    0.5166000000   -3.2418000000 
H      1.0      0.1914000000   -0.3582000000   -3.4509000000 
H      1.0     -1.0031000000   -1.6509000000   -3.2597000000 
H      1.0      0.4326000000   -1.6637000000   -2.2599000000 
H      1.0     -0.1698000000   -1.0003000000    2.2555000000 
H      1.0      3.9580000000   -1.8338000000    1.5199000000 
H      1.0      3.7604000000   -0.7491000000   -0.6928000000 
H      1.0      0.9599000000    1.4337000000   -1.5812000000 
H      1.0      2.6352000000    1.5430000000   -1.0851000000 
H      1.0      2.1992000000    0.4787000000   -2.4327000000 
H      1.0      1.1626000000   -2.2611000000    5.0298000000 
 $END


