 $CONTRL SCFTYP=RHF RUNTYP=HESSIAN EXETYP=RUN
 MAXIT=200 ICHARG=-2 MULT=1 ISPHER=1
 COORD=CART UNITS=ANGS $END
 $BASIS GBASIS=CCD $END
 $SYSTEM TIMLIM=1300 MWORDS=100 PARALL=.TRUE. $END
 $SCF DIRSCF=.TRUE. $END 
 $STATPT HESS=READ $END

 $DATA
bpy.mol
C1
C      6.0     -3.2425000000   -0.1488000000   -1.3175000000 
C      6.0     -3.0245000000   -1.1404000000   -0.2898000000 
C      6.0     -1.8300000000   -1.2682000000    0.3230000000 
C      6.0     -0.6722000000   -0.4201000000   -0.0591000000 
N      7.0     -1.0228000000    0.6932000000   -0.8936000000 
C      6.0     -2.2550000000    0.7227000000   -1.5507000000 
C      6.0      0.6072000000   -0.7146000000    0.3554000000 
C      6.0     -0.3228000000    1.9872000000   -0.7585000000 
C      6.0      0.8683000000   -1.6154000000    1.5066000000 
C      6.0      2.0794000000   -1.7038000000    2.0944000000 
C      6.0      3.1897000000   -0.9320000000    1.5797000000 
C      6.0      3.0100000000   -0.2441000000    0.4467000000 
N      7.0      1.7975000000   -0.1866000000   -0.2434000000 
C      6.0      1.8885000000   -0.0038000000   -1.7057000000 
C      6.0      2.2868000000   -2.5433000000    3.2276000000 
N      7.0      2.4573000000   -3.2252000000    4.1512000000 
N      7.0     -4.1074000000   -2.0458000000    0.1089000000 
O      8.0     -3.8828000000   -2.8865000000    0.9925000000 
O      8.0     -5.1968000000   -1.9157000000   -0.4684000000 
H      1.0     -4.1908000000   -0.0872000000   -1.8388000000 
H      1.0     -1.6977000000   -2.0404000000    1.0678000000 
H      1.0     -2.3762000000    1.5389000000   -2.2585000000 
H      1.0     -1.0369000000    2.7729000000   -0.4824000000 
H      1.0      0.4433000000    1.9877000000    0.0219000000 
H      1.0      0.1341000000    2.2707000000   -1.7119000000 
H      1.0      0.0600000000   -2.1888000000    1.9418000000 
H      1.0      4.1520000000   -0.9614000000    2.0789000000 
H      1.0      3.8290000000    0.2926000000   -0.0250000000 
H      1.0      0.9632000000   -0.2478000000   -2.2347000000 
H      1.0      2.6593000000   -0.6663000000   -2.1187000000 
H      1.0      2.1715000000    1.0276000000   -1.9397000000 
 $END


