 $CONTRL SCFTYP=RHF RUNTYP=HESSIAN EXETYP=RUN
 MAXIT=200 ICHARG=-2 MULT=1 ISPHER=1
 COORD=CART UNITS=ANGS $END
 $BASIS GBASIS=CCD $END
 $SYSTEM TIMLIM=1300 MWORDS=100 PARALL=.TRUE. $END
 $SCF DIRSCF=.TRUE. $END 
 $STATPT HESS=READ $END

 $DATA
bpy.mol
C1
C      6.0     -2.5083000000    1.8395000000    0.7690000000 
C      6.0     -1.3250000000    2.2902000000    0.0709000000 
C      6.0     -0.2991000000    1.4419000000   -0.1305000000 
C      6.0     -0.3587000000    0.0222000000    0.2797000000 
N      7.0     -1.3505000000   -0.2140000000    1.2892000000 
C      6.0     -2.4524000000    0.6451000000    1.3727000000 
C      6.0      0.4943000000   -0.8982000000   -0.2858000000 
C      6.0     -1.1112000000   -1.0929000000    2.4467000000 
C      6.0      0.4075000000   -2.3185000000    0.1261000000 
C      6.0      1.4221000000   -3.1758000000   -0.0930000000 
C      6.0      2.6122000000   -2.7588000000   -0.7977000000 
C      6.0      2.5759000000   -1.5598000000   -1.3923000000 
N      7.0      1.4916000000   -0.6796000000   -1.2939000000 
C      6.0      1.3122000000    0.2720000000   -2.4041000000 
N      7.0      1.2727000000   -4.5533000000    0.3772000000 
O      8.0      2.1254000000   -5.3744000000    0.0090000000 
O      8.0      0.3190000000   -4.8234000000    1.1234000000 
C      6.0     -1.2043000000    3.6954000000   -0.3967000000 
O      8.0     -0.2572000000    4.1178000000   -1.0508000000 
H      1.0     -3.3751000000    2.4820000000    0.8607000000 
H      1.0      0.6125000000    1.8123000000   -0.5806000000 
H      1.0     -3.2663000000    0.2817000000    1.9943000000 
H      1.0     -0.0505000000   -1.3319000000    2.5746000000 
H      1.0     -1.6911000000   -2.0165000000    2.3521000000 
H      1.0     -1.4232000000   -0.5994000000    3.3757000000 
H      1.0     -0.5148000000   -2.6540000000    0.5822000000 
H      1.0      3.4615000000   -3.4239000000   -0.8994000000 
H      1.0      3.3944000000   -1.2102000000   -2.0165000000 
H      1.0      1.6659000000   -0.1650000000   -3.3465000000 
H      1.0      1.8931000000    1.1827000000   -2.2274000000 
H      1.0      0.2592000000    0.5215000000   -2.5689000000 
H      1.0     -2.0453000000    4.3526000000   -0.1191000000 
 $END


