 $CONTRL SCFTYP=RHF RUNTYP=HESSIAN EXETYP=RUN
 MAXIT=200 ICHARG=-2 MULT=1 ISPHER=1
 COORD=CART UNITS=ANGS $END
 $BASIS GBASIS=CCD $END
 $SYSTEM TIMLIM=1300 MWORDS=100 PARALL=.TRUE. $END
 $SCF DIRSCF=.TRUE. $END 
 $STATPT HESS=READ $END

 $DATA
bpy.mol
C1
C      6.0     -0.8127000000   -3.5615000000   -0.1083000000 
C      6.0     -0.2073000000   -2.9409000000   -1.2681000000 
C      6.0      0.0115000000   -1.6090000000   -1.2776000000 
C      6.0     -0.3123000000   -0.7390000000   -0.1189000000 
N      7.0     -1.1209000000   -1.3806000000    0.8766000000 
C      6.0     -1.2530000000   -2.7704000000    0.8764000000 
C      6.0      0.1533000000    0.5538000000   -0.0364000000 
C      6.0     -2.1547000000   -0.6234000000    1.6064000000 
C      6.0      0.6402000000    1.2823000000   -1.2334000000 
C      6.0      0.8560000000    2.6072000000   -1.2240000000 
C      6.0      0.6560000000    3.3810000000   -0.0254000000 
C      6.0      0.3663000000    2.7167000000    1.1006000000 
N      7.0      0.2029000000    1.3298000000    1.1714000000 
C      6.0      0.5465000000    0.6947000000    2.4570000000 
O      8.0      1.2661000000    3.2723000000   -2.3558000000 
C      6.0      0.1997000000   -3.7158000000   -2.4646000000 
O      8.0     -0.0617000000   -5.0318000000   -2.3514000000 
O      8.0      0.7190000000   -3.2751000000   -3.4759000000 
H      1.0     -0.9465000000   -4.6360000000   -0.0732000000 
H      1.0      0.4926000000   -1.1809000000   -2.1474000000 
H      1.0     -1.7789000000   -3.1778000000    1.7352000000 
H      1.0     -2.2052000000    0.4316000000    1.3229000000 
H      1.0     -1.9842000000   -0.6960000000    2.6854000000 
H      1.0     -3.1466000000   -1.0419000000    1.3950000000 
H      1.0      0.7815000000    0.7751000000   -2.1768000000 
H      1.0      0.7795000000    4.4553000000   -0.0229000000 
H      1.0      0.2705000000    3.2320000000    2.0518000000 
H      1.0      1.4799000000    1.1183000000    2.8479000000 
H      1.0      0.7123000000   -0.3836000000    2.3815000000 
H      1.0     -0.2412000000    0.8841000000    3.1932000000 
H      1.0      1.3829000000    4.2108000000   -2.1386000000 
H      1.0      0.2565000000   -5.3975000000   -3.2025000000 
 $END


