 $CONTRL SCFTYP=RHF RUNTYP=HESSIAN EXETYP=RUN
 MAXIT=200 ICHARG=-2 MULT=1 ISPHER=1
 COORD=CART UNITS=ANGS $END
 $BASIS GBASIS=CCD $END
 $SYSTEM TIMLIM=1300 MWORDS=100 PARALL=.TRUE. $END
 $SCF DIRSCF=.TRUE. $END 
 $STATPT HESS=READ $END

 $DATA
bpy.mol
C1
C      6.0     -1.6182000000    0.5802000000    3.0394000000 
C      6.0     -2.4200000000    0.5611000000    1.8478000000 
C      6.0     -1.8957000000    0.1844000000    0.6673000000 
C      6.0     -0.4628000000   -0.1888000000    0.5298000000 
N      7.0      0.2103000000   -0.3763000000    1.7836000000 
C      6.0     -0.3717000000    0.1001000000    2.9631000000 
C      6.0      0.1364000000   -0.3105000000   -0.7036000000 
C      6.0      1.2193000000   -1.4403000000    1.9425000000 
C      6.0     -0.6624000000   -0.4965000000   -1.9407000000 
C      6.0     -0.1068000000   -0.8625000000   -3.1138000000 
C      6.0      1.3241000000   -1.0544000000   -3.2064000000 
C      6.0      2.0736000000   -0.7450000000   -2.1424000000 
N      7.0      1.5519000000   -0.2888000000   -0.9306000000 
C      6.0      2.4340000000    0.5695000000   -0.1159000000 
C      6.0     -0.9120000000   -1.0759000000   -4.2703000000 
N      7.0     -1.5725000000   -1.2484000000   -5.2091000000 
O      8.0     -3.7206000000    0.9586000000    2.0275000000 
H      1.0     -2.0476000000    0.9286000000    3.9700000000 
H      1.0     -2.5330000000    0.2201000000   -0.2022000000 
H      1.0      0.2563000000    0.0213000000    3.8456000000 
H      1.0      2.1474000000   -1.0221000000    2.3458000000 
H      1.0      1.4449000000   -1.9721000000    1.0141000000 
H      1.0      0.8570000000   -2.1986000000    2.6478000000 
H      1.0     -1.7391000000   -0.3970000000   -1.9060000000 
H      1.0      1.7701000000   -1.3946000000   -4.1344000000 
H      1.0      3.1581000000   -0.8048000000   -2.1779000000 
H      1.0      1.8939000000    1.1804000000    0.6129000000 
H      1.0      3.1786000000   -0.0404000000    0.4052000000 
H      1.0      2.9726000000    1.2751000000   -0.7608000000 
H      1.0     -4.1764000000    0.9073000000    1.1717000000 
 $END


