 $CONTRL SCFTYP=RHF RUNTYP=HESSIAN EXETYP=RUN
 MAXIT=200 ICHARG=-2 MULT=1 ISPHER=1
 COORD=CART UNITS=ANGS $END
 $BASIS GBASIS=CCD $END
 $SYSTEM TIMLIM=1300 MWORDS=100 PARALL=.TRUE. $END
 $SCF DIRSCF=.TRUE. $END 
 $STATPT HESS=READ $END

 $DATA
bpy.mol
C1
C      6.0     -1.7592000000    2.9762000000   -0.3394000000 
C      6.0     -2.5027000000    1.7593000000   -0.5719000000 
C      6.0     -1.9099000000    0.5499000000   -0.5114000000 
C      6.0     -0.4724000000    0.4106000000   -0.1661000000 
N      7.0      0.2496000000    1.6513000000   -0.1908000000 
C      6.0     -0.4351000000    2.8682000000   -0.1850000000 
C      6.0      0.0783000000   -0.8106000000    0.1516000000 
C      6.0      1.6637000000    1.6917000000   -0.6145000000 
C      6.0     -0.5892000000   -2.0886000000   -0.2084000000 
C      6.0      0.0437000000   -3.2793000000   -0.1622000000 
C      6.0      1.4175000000   -3.3377000000    0.2905000000 
C      6.0      1.9758000000   -2.2226000000    0.7755000000 
N      7.0      1.3320000000   -0.9836000000    0.8247000000 
C      6.0      1.7056000000   -0.1036000000    1.9474000000 
C      6.0     -0.6003000000   -4.5715000000   -0.5621000000 
N      7.0     -3.9367000000    1.8126000000   -0.8749000000 
O      8.0     -4.4670000000    2.9328000000   -0.9128000000 
O      8.0     -4.5421000000    0.7491000000   -1.0766000000 
H      1.0     -2.2551000000    3.9398000000   -0.3409000000 
H      1.0     -2.5036000000   -0.3402000000   -0.6639000000 
H      1.0      0.1955000000    3.7467000000   -0.0750000000 
H      1.0      1.7857000000    2.3886000000   -1.4532000000 
H      1.0      2.2952000000    2.0459000000    0.2060000000 
H      1.0      2.0369000000    0.7269000000   -0.9697000000 
H      1.0     -1.6054000000   -2.0847000000   -0.5763000000 
H      1.0      1.9522000000   -4.2802000000    0.2831000000 
H      1.0      2.9759000000   -2.2312000000    1.1988000000 
H      1.0      1.0228000000    0.7382000000    2.0909000000 
H      1.0      2.7181000000    0.2865000000    1.7993000000 
H      1.0      1.6956000000   -0.6701000000    2.8868000000 
H      1.0     -1.6362000000   -4.4284000000   -0.8877000000 
H      1.0     -0.6120000000   -5.2722000000    0.2796000000 
H      1.0     -0.0537000000   -5.0336000000   -1.3912000000 
 $END


