 $CONTRL SCFTYP=RHF RUNTYP=HESSIAN EXETYP=RUN
 MAXIT=200 ICHARG=-2 MULT=1 ISPHER=1
 COORD=CART UNITS=ANGS $END
 $BASIS GBASIS=CCD $END
 $SYSTEM TIMLIM=1300 MWORDS=100 PARALL=.TRUE. $END
 $SCF DIRSCF=.TRUE. $END 
 $STATPT HESS=READ $END

 $DATA
bpy.mol
C1
C      6.0     -0.7796000000    3.0589000000   -1.4796000000 
C      6.0     -1.8325000000    2.0833000000   -1.3639000000 
C      6.0     -1.5663000000    0.8441000000   -0.9138000000 
C      6.0     -0.2056000000    0.4342000000   -0.4821000000 
N      7.0      0.8233000000    1.3597000000   -0.8623000000 
C      6.0      0.4770000000    2.6566000000   -1.2564000000 
C      6.0      0.0100000000   -0.7217000000    0.2336000000 
C      6.0      2.1348000000    0.8706000000   -1.3263000000 
C      6.0     -0.9996000000   -1.8097000000    0.2740000000 
C      6.0     -0.6942000000   -3.0323000000    0.7531000000 
C      6.0      0.6172000000   -3.3290000000    1.2821000000 
C      6.0      1.4796000000   -2.3128000000    1.3949000000 
N      7.0      1.1966000000   -1.0069000000    0.9895000000 
C      6.0      1.9217000000    0.0726000000    1.6892000000 
N      7.0     -1.7319000000   -4.0681000000    0.7184000000 
O      8.0     -2.8485000000   -3.7765000000    0.2641000000 
O      8.0     -1.4284000000   -5.1897000000    1.1515000000 
H      1.0     -1.0140000000    4.0674000000   -1.7970000000 
H      1.0     -2.8377000000    2.3738000000   -1.6491000000 
H      1.0     -2.4058000000    0.1689000000   -0.8278000000 
H      1.0      1.3193000000    3.3259000000   -1.4049000000 
H      1.0      2.9394000000    1.3786000000   -0.7842000000 
H      1.0      2.2639000000   -0.2095000000   -1.2160000000 
H      1.0      2.2586000000    1.0864000000   -2.3947000000 
H      1.0     -1.9824000000   -1.6310000000   -0.1390000000 
H      1.0      0.8681000000   -4.3281000000    1.6186000000 
H      1.0      2.4585000000   -2.4487000000    1.8475000000 
H      1.0      1.9965000000   -0.1567000000    2.7596000000 
H      1.0      1.4216000000    1.0431000000    1.6245000000 
H      1.0      2.9393000000    0.1617000000    1.2966000000 
 $END


