 $CONTRL SCFTYP=RHF RUNTYP=HESSIAN EXETYP=RUN
 MAXIT=200 ICHARG=-2 MULT=1 ISPHER=1
 COORD=CART UNITS=ANGS $END
 $BASIS GBASIS=CCD $END
 $SYSTEM TIMLIM=1300 MWORDS=100 PARALL=.TRUE. $END
 $SCF DIRSCF=.TRUE. $END 
 $STATPT HESS=READ $END

 $DATA
bpy.mol
C1
C      6.0     -3.6316000000    0.6177000000   -1.4043000000 
C      6.0     -3.1955000000    0.9767000000   -0.0755000000 
C      6.0     -1.9769000000    0.6078000000    0.3669000000 
C      6.0     -1.0201000000   -0.1429000000   -0.4879000000 
N      7.0     -1.6025000000   -0.6544000000   -1.6957000000 
C      6.0     -2.8425000000   -0.1810000000   -2.1307000000 
C      6.0      0.3005000000   -0.2970000000   -0.1294000000 
C      6.0     -1.1551000000   -1.9403000000   -2.2632000000 
C      6.0      0.7533000000   -0.1262000000    1.2756000000 
C      6.0      1.9677000000   -0.5110000000    1.7278000000 
C      6.0      2.8969000000   -1.0788000000    0.7694000000 
C      6.0      2.5681000000   -1.1036000000   -0.5275000000 
N      7.0      1.3499000000   -0.6527000000   -1.0350000000 
C      6.0      1.3748000000   -0.1123000000   -2.4068000000 
N      7.0      2.3374000000   -0.3767000000    3.0570000000 
C      6.0      3.4435000000   -1.0331000000    3.7180000000 
C      6.0     -4.0748000000    1.7701000000    0.8221000000 
O      8.0     -5.1967000000    2.1478000000    0.5024000000 
H      1.0     -4.5960000000    0.9577000000   -1.7647000000 
H      1.0     -1.6691000000    0.9262000000    1.3523000000 
H      1.0     -3.1500000000   -0.5374000000   -3.1098000000 
H      1.0     -0.3939000000   -2.4415000000   -1.6587000000 
H      1.0     -0.7703000000   -1.7926000000   -3.2772000000 
H      1.0     -1.9990000000   -2.6389000000   -2.3249000000 
H      1.0      0.0669000000    0.2717000000    2.0070000000 
H      1.0      3.8684000000   -1.4285000000    1.0900000000 
H      1.0      3.2706000000   -1.4543000000   -1.2776000000 
H      1.0      0.4917000000    0.4800000000   -2.6612000000 
H      1.0      2.2359000000    0.5560000000   -2.5315000000 
H      1.0      1.4747000000   -0.9278000000   -3.1306000000 
H      1.0      1.5644000000   -0.1443000000    3.6736000000 
H      1.0      3.3402000000   -2.1213000000    3.6641000000 
H      1.0      3.4625000000   -0.7457000000    4.7738000000 
H      1.0      4.4003000000   -0.7362000000    3.2777000000 
H      1.0     -3.6564000000    2.0073000000    1.8146000000 
 $END


