 $CONTRL SCFTYP=RHF RUNTYP=HESSIAN EXETYP=RUN
 MAXIT=200 ICHARG=-2 MULT=1 ISPHER=1
 COORD=CART UNITS=ANGS $END
 $BASIS GBASIS=CCD $END
 $SYSTEM TIMLIM=1300 MWORDS=100 PARALL=.TRUE. $END
 $SCF DIRSCF=.TRUE. $END 
 $STATPT HESS=READ $END

 $DATA
bpy.mol
C1
C      6.0      2.8689000000    0.4556000000    2.1752000000 
C      6.0      2.7292000000   -0.9361000000    1.8325000000 
C      6.0      1.6938000000   -1.3518000000    1.0816000000 
C      6.0      0.6774000000   -0.4125000000    0.5426000000 
N      7.0      0.7420000000    0.9007000000    1.1190000000 
C      6.0      1.8793000000    1.2894000000    1.8343000000 
C      6.0     -0.2139000000   -0.7968000000   -0.4333000000 
C      6.0     -0.4917000000    1.6590000000    1.3945000000 
C      6.0     -0.4931000000   -2.2285000000   -0.7072000000 
C      6.0     -1.5274000000   -2.6197000000   -1.4715000000 
C      6.0     -2.3941000000   -1.6515000000   -2.0918000000 
C      6.0     -2.0684000000   -0.3586000000   -1.9793000000 
N      7.0     -0.9639000000    0.1062000000   -1.2600000000 
C      6.0     -0.3723000000    1.3789000000   -1.7133000000 
Cl    17.0     -1.8628000000   -4.2916000000   -1.7281000000 
H      1.0      3.7311000000    0.7858000000    2.7409000000 
H      1.0      3.4774000000   -1.6333000000    2.1930000000 
H      1.0      1.6617000000   -2.4031000000    0.8342000000 
H      1.0      1.8935000000    2.3340000000    2.1307000000 
H      1.0     -0.4357000000    2.6500000000    0.9326000000 
H      1.0     -0.6133000000    1.7983000000    2.4759000000 
H      1.0     -1.4002000000    1.1580000000    1.0492000000 
H      1.0      0.1042000000   -2.9985000000   -0.2412000000 
H      1.0     -3.2512000000   -1.9760000000   -2.6682000000 
H      1.0     -2.6430000000    0.4145000000   -2.4812000000 
H      1.0      0.6582000000    1.5243000000   -1.3773000000 
H      1.0     -0.3395000000    1.4096000000   -2.8095000000 
H      1.0     -0.9836000000    2.2213000000   -1.3745000000 
 $END


