 $CONTRL SCFTYP=RHF RUNTYP=HESSIAN EXETYP=RUN
 MAXIT=200 ICHARG=-2 MULT=1 ISPHER=1
 COORD=CART UNITS=ANGS $END
 $BASIS GBASIS=CCD $END
 $SYSTEM TIMLIM=1300 MWORDS=100 PARALL=.TRUE. $END
 $SCF DIRSCF=.TRUE. $END 
 $STATPT HESS=READ $END

 $DATA
bpy.mol
C1
C      6.0     -2.1386000000    0.9619000000    1.5723000000 
C      6.0     -2.0964000000    1.0955000000    0.1283000000 
C      6.0     -1.0735000000    0.5049000000   -0.5291000000 
C      6.0     -0.0063000000   -0.2830000000    0.1400000000 
N      7.0      0.0106000000   -0.1359000000    1.5633000000 
C      6.0     -1.1055000000    0.3964000000    2.2078000000 
C      6.0      0.8578000000   -1.0847000000   -0.5715000000 
C      6.0      1.2848000000   -0.0742000000    2.3007000000 
C      6.0      1.0559000000   -0.9131000000   -2.0324000000 
C      6.0      2.0672000000   -1.5044000000   -2.7007000000 
C      6.0      2.9871000000   -2.3724000000   -1.9980000000 
C      6.0      2.7313000000   -2.6602000000   -0.7169000000 
N      7.0      1.6529000000   -2.1346000000   -0.0033000000 
C      6.0      1.1318000000   -2.9580000000    1.1049000000 
C      6.0      2.2534000000   -1.2804000000   -4.0959000000 
N      7.0      2.4052000000   -1.0961000000   -5.2319000000 
N      7.0     -3.0952000000    1.7937000000   -0.5329000000 
C      6.0     -4.0065000000    2.7522000000    0.0534000000 
H      1.0     -2.9778000000    1.3502000000    2.1326000000 
H      1.0     -1.0822000000    0.5770000000   -1.6059000000 
H      1.0     -1.0723000000    0.3441000000    3.2919000000 
H      1.0      1.2853000000   -0.8067000000    3.1146000000 
H      1.0      1.4141000000    0.9211000000    2.7436000000 
H      1.0      2.1632000000   -0.2440000000    1.6720000000 
H      1.0      0.4083000000   -0.2485000000   -2.5885000000 
H      1.0      3.8296000000   -2.8116000000   -2.5205000000 
H      1.0      3.3480000000   -3.3605000000   -0.1601000000 
H      1.0      0.1075000000   -2.7036000000    1.3914000000 
H      1.0      1.7836000000   -2.8702000000    1.9798000000 
H      1.0      1.1091000000   -4.0146000000    0.8103000000 
H      1.0     -2.8813000000    1.9744000000   -1.5098000000 
H      1.0     -3.4587000000    3.5761000000    0.5213000000 
H      1.0     -4.6556000000    2.2787000000    0.7962000000 
H      1.0     -4.6493000000    3.1714000000   -0.7270000000 
 $END


