!   File created by the GAMESS Input Deck Generator Plugin for Avogadro
 $BASIS GBASIS=CCD $END
 $CONTRL MAXIT=200 NPRINT=-5 SCFTYP=RHF DFTTYP=B3LYP RUNTYP=OPTIMIZE
 ISPHER=1 ICHARG=0 MULT=1 $END
 $SYSTEM MWORDS=100 TIMLIM=648 PARALL=.TRUE. $END
 $DFT NRAD=96 NLEB=302 $END
 $GUESS GUESS=MOREAD $END
 $STATPT  NSTEP=300 $END 

 $DATA 
hf-ccd-cation-nosub-twisted43-geomfromHFcalculationresult-3,or4,5,6input
C1
C           6.0  -0.2151113256   0.4955350206  -0.1242401052
N           7.0   0.3679962237   0.8219339274   1.1755565897
C           6.0  -0.4945888413   0.7736740385   2.3188157645
C           6.0  -0.3217461387   1.8293096259   3.2891214952
C           6.0   0.7584837722   2.6535155199   3.2394309807
C           6.0   1.7463685785   2.5177067963   2.1932778075
C           6.0   1.4950963135   1.6310362036   1.1985780530
H           1.0   2.1705215208   1.5195427390   0.3462376564
H           1.0   2.6531238716   3.1184851857   2.1953325647
CL         17.0   1.0111205435   3.8780450631   4.4616726022
H           1.0  -1.0239358339   1.9107889228   4.1176847164
C           6.0  -1.4168124735  -0.2629407056   2.4766620318
C           6.0  -2.6327408298  -0.1290503459   3.2458383923
C           6.0  -3.6260206158  -1.0527267367   3.1500130714
C           6.0  -3.4757765753  -2.2153470646   2.3055497443
C           6.0  -2.2743154881  -2.4133683372   1.7079627501
N           7.0  -1.2122684707  -1.5307182955   1.8373635975
C           6.0   0.1404330950  -2.0866195834   1.8583944381
H           1.0   0.0936805573  -3.1589326775   1.6217541816
H           1.0   0.8058713477  -1.5850807565   1.1369021434
H           1.0   0.5861918803  -1.9610823864   2.8626681745
H           1.0  -2.0732021419  -3.2987336500   1.0996195481
H           1.0  -4.2968371186  -2.9125849937   2.1579380975
CL         17.0  -5.1376675138  -0.8406752357   3.9954557255
H           1.0  -2.7879273669   0.7699987215   3.8421660642
H           1.0   0.4488083078   0.8599703846  -0.9203567466
H           1.0  -0.3675638493  -0.5891119385  -0.2512576961
H           1.0  -1.2027331788   0.9829465181  -0.2266288428
 $END
 $VEC   
 1  1-1.87608945E-07-3.51614973E-07 3.67847513E-06-1.35250643E-07 9.58016382E-08
 1  2 1.35779313E-07 2.54859262E-06 2.34224341E-07 4.75416538E-07 4.91190674E-07
 1  3-1.77087397E-07-3.14103278E-07-2.27685941E-07 5.93694649E-07-5.19745136E-08
 1  4-8.50358862E-07-1.65737430E-06 8.11542325E-06 8.86601902E-08-4.81438885E-07
 1  5-3.92030306E-07-5.15990754E-06 1.15547571E-06 5.62439884E-06-1.87149588E-07
 1  6 3.00280522E-08 1.57121536E-07-6.59084458E-07-1.99949511E-07 1.37848635E-07
 1  7-5.20454644E-06-8.74257062E-06 1.09361692E-04-7.96260216E-07-1.23727781E-06
 1  8-7.34257121E-07-5.47118339E-05-2.41592269E-05 4.13987066E-05 9.51145975E-07
 1  9 1.25479482E-06-2.20594079E-06 5.19454163E-06-4.97718648E-07 3.00960687E-07
 1 10 7.32974856E-07 7.24461993E-07-7.96230504E-05 5.19102626E-07 1.48399883E-06
 1 11-5.34243525E-07-3.75390335E-05-1.07668252E-05 2.52756886E-05-1.30816877E-06
 1 12-8.42278156E-07 2.15044692E-06-2.14810334E-06-7.95778493E-07-6.61781283E-08
 1 13-3.90852699E-06-6.70008044E-06 7.60695627E-05-6.57934423E-07-6.45983430E-07
 1 14 5.78695727E-07-3.16215880E-05-4.25985655E-05-2.39138402E-05 1.00819774E-06
 1 15 1.84873740E-07-1.19307148E-06 2.90444205E-06-2.68072114E-07 9.23584738E-07
 1 16 3.46563878E-07 3.39395247E-07-3.90126381E-05 5.40886336E-07-8.00476796E-08
 1 17-4.52454557E-07 1.93472560E-05 2.21191397E-05 1.19540452E-05-4.39666227E-07
 1 18 2.97087765E-07 1.42578462E-07-4.37067686E-07-7.07549381E-09-3.55748332E-07
 1 19-2.38978979E-06-4.09040500E-06 4.20861339E-05 7.44006254E-07 4.92807946E-07
 1 20-8.06571050E-08-8.93897280E-06 6.51153956E-06 2.02166277E-05-1.14716334E-07
 1 21-8.47090442E-08 1.99425378E-07 1.22359824E-06-7.15686816E-07 1.05318674E-06
 1 22 1.48151986E-07 5.92308834E-06 1.12852961E-07-1.71539289E-07-5.10058234E-07
 1 23-1.29477956E-06-6.19891980E-06-7.07239815E-07-7.36052977E-07-2.26234570E-07
 1 24-1.21397992E-04-3.47835908E-06-4.13024528E-06 1.82390360E-05 9.28428044E-08
 1 25-3.60119751E-08-1.71240102E-07 4.06343078E-07-1.07963101E-07-6.64816440E-07
 1 26 4.76602062E-07-4.49950857E-06-5.02297854E-06-1.90720466E-07-1.63313926E-07
 1 27 3.54034392E-07-4.92218920E-07-5.21902669E-07 1.20503510E-07 3.12483997E-08
 1 28 2.45702512E-08-5.58186509E-08 8.19256162E-08 9.11651322E-08-1.75810619E-08
 1 29-2.28082974E-06-1.78725829E-05-2.16210421E-08-2.14515217E-07 6.24868217E-07
 1 30 2.58554596E-06 3.95097064E-06-1.95972954E-04 4.15811068E-06 6.52638621E-07
 1 31-9.80739598E-07 1.28170968E-05-6.77089463E-05-4.26029324E-05-3.11400009E-08
 1 32-8.97150673E-07 9.28290674E-07-2.94902640E-06 5.55931757E-07 2.75965626E-06
 1 33-8.49016227E-06-1.39008673E-05 3.14920766E-04-7.23053297E-06-9.19226764E-07
 1 34 1.43383442E-06 3.61404811E-05-1.89990119E-04-1.34495369E-04-1.55127671E-06
 1 35 6.33251846E-06-4.78124175E-06 9.40436193E-06 2.18337211E-06 5.47411997E-06
 1 36-3.01681864E-06-6.39216275E-06-1.73294880E-04 1.11602172E-05-3.68549821E-06
 1 37-6.85528769E-06-4.60311748E-04 5.60472286E-05 2.53649164E-04 1.43064568E-05
 1 38-1.43926284E-05 8.61715551E-08-1.03498568E-05-1.58949984E-05-2.19121988E-06
 1 39-7.76109660E-06-1.28938574E-05 2.29831518E-04-5.24586513E-06 3.81920291E-06
 1 40 3.99186630E-06 1.57212198E-04 1.42985694E-04 2.89722257E-05-4.48322560E-06
 1 41 7.83327797E-06-3.35005237E-06 5.89305674E-06 3.90205777E-06 8.11549897E-06
 1 42-2.92819235E-06-5.42719886E-06-1.06254195E-04 2.57442164E-06-1.31275353E-06
 1 43-2.16922017E-06 7.71236936E-06-2.70050177E-05-1.74309227E-05 9.31680972E-07
 1 44-6.75727259E-07-2.55953714E-07-1.00972483E-06-2.56444940E-06 3.26998301E-06
 1 45-5.25741786E-07-1.03467533E-06 3.95586697E-06 6.09722791E-07 4.72819412E-07
 1 46-5.84260726E-08-5.42232291E-06-1.36571906E-05-4.94162654E-06 1.23193232E-07
 1 47 2.40284478E-07-3.63477710E-07 1.31690269E-06 7.86061524E-07 1.47116431E-07
 1 48-1.86057037E-07-3.20642744E-07-7.48713125E-07 1.07645052E-07 8.48139818E-08
 1 49-5.47149885E-08 1.35640414E-06-1.47718002E-06 1.61221916E-06-2.71992403E-07
 1 50 5.72217149E-07-3.00224746E-07-3.63386656E-07-3.93294223E-07 3.69431564E-07
 1 51-3.46869907E-07-1.30945337E-06-1.64975021E-07-3.32622837E-07-2.73130774E-09
 1 52 2.89243550E-07 1.07601773E-06-1.06555896E-07 1.34329483E-07 3.42037379E-08
 1 53 2.74516211E-07-2.13200577E-06 4.48406437E-08-2.81431156E-08-3.54017569E-08
 1 54 2.60037071E-07 4.23435694E-07-7.15256308E-07 3.34775662E-07 5.15951936E-07
 1 55 1.00132093E-05 7.43101067E-05-1.32146469E-06-3.92524277E-06-1.56408305E-06
 1 56 9.99998021E-01-1.16114698E-04-3.68098962E-04-5.36671516E-04 3.20124411E-05
 1 57-4.37271262E-06-1.77034759E-05-2.03693136E-05 2.67910884E-06 1.12503035E-05
 1 58-1.68490474E-04 2.53979459E-05 9.52500866E-05-2.39205316E-05 1.87222862E-05
 1 59 5.19824534E-06 7.86106507E-06 2.81774678E-05-3.58501091E-06 5.87933514E-06
 1 60-4.62486162E-06-1.25447353E-06-1.93614653E-06-6.84836633E-06 7.88705317E-07
 1 61 9.79635920E-06 7.85117755E-05 2.26553363E-06 3.02120306E-06 1.40143013E-06
 1 62-1.05601514E-07-8.61545438E-07-4.26003327E-08 6.98168389E-08 1.60712368E-07
 1 63-3.18842348E-07-3.42015533E-07-1.36873763E-07 9.42635394E-08-2.00908022E-07
 1 64 3.47090032E-08 3.19016126E-07-3.03292993E-07 1.92673952E-07 1.19805858E-07
 2  1-1.65133157E-07-2.83588769E-07-7.96661235E-07-6.01478508E-08-1.27320073E-07
 2  2-1.32674546E-08-1.37836410E-06 1.25245266E-06-1.88226657E-06-3.72644624E-07
 2  3-2.29916269E-07 6.02560893E-07 8.86063528E-08-6.38709166E-07 2.75234188E-08
 2  4-5.65761270E-07-1.10544307E-06 4.34075448E-06-5.39574487E-07-5.41638368E-07
 2  5-6.65730548E-08 1.26581905E-05 5.38751635E-06-7.00783875E-06 1.16839179E-06
 2  6-1.58670063E-07-1.00972173E-06 8.36495603E-07 6.31872764E-10-4.37234340E-07
 2  7 2.40355093E-06 3.64611720E-06-1.91859759E-04-2.21549712E-06-2.91766458E-06
 2  8-2.31734962E-06 4.94294387E-05-4.24176126E-06-6.18219570E-05 5.62475013E-07
 2  9-2.79250896E-06 2.23003395E-06-2.30062848E-06-5.57712208E-07 1.73038217E-06
 2 10-8.43409547E-06-1.38096503E-05 3.12764029E-04 3.84748422E-06 4.80661179E-06
 2 11 4.16892519E-06 1.52658917E-04-2.39118453E-05-1.76525373E-04 7.57797373E-06
 2 12-2.83942591E-06-4.73854783E-06 8.01825972E-06-6.47883265E-06-2.14448611E-06
 2 13-2.96126414E-06-6.32333325E-06-1.75259653E-04-5.03318717E-07-8.55443575E-06
 2 14-1.07261573E-05 8.48067499E-05 3.70528068E-04 3.63204679E-04-1.45581892E-05
 2 15 6.75999808E-06 7.79819113E-06-2.10497981E-06 8.51935146E-06 1.82885815E-05
 2 16-7.81321544E-06-1.29811510E-05 2.30972127E-04-1.13169528E-06 3.53811114E-06
 2 17 6.64931111E-06-1.78040818E-04-1.19858006E-04 5.75127979E-06 8.03485966E-06
 2 18-6.08820171E-06-1.94665795E-06 4.74317165E-06-8.59301541E-06-3.09081224E-06
 2 19-2.84624840E-06-5.29003437E-06-1.08211282E-04 4.24809610E-07-2.12255220E-06
 2 20-2.90760108E-06 1.82987339E-05-3.82766421E-06-2.80187049E-05-4.48881470E-07
 2 21-1.02503508E-06 1.47391654E-06 6.53768190E-08-1.84363984E-06 3.59733612E-06
 2 22 3.09244433E-07 3.77972884E-07-2.55079904E-08 5.66738404E-07 8.25073262E-07
 2 23 1.00329404E-05 7.42113620E-05 3.57771814E-06 1.38163188E-06-2.16637362E-06
 2 24 9.99997938E-01-1.16745997E-04-3.68712835E-04-5.33048725E-04-5.43728876E-06
 2 25-2.58336625E-05-2.56693482E-05 3.49971618E-06 1.61483978E-05 1.61052578E-05
 2 26 2.62425085E-05 1.35479781E-04 1.36180004E-04 1.85618141E-05-9.25931907E-06
 2 27-9.30249507E-06-5.88324623E-06-6.89624221E-06-3.25280419E-05-4.56908852E-06
 2 28 2.30238418E-06 2.26670435E-06 1.41913484E-06 1.78228875E-06 7.94284294E-06
 2 29 9.66697726E-06 7.84247171E-05-3.71012429E-06-1.41380565E-06 8.76609486E-07
 2 30-5.08090357E-06-8.52899350E-06 1.07072714E-04 1.54115085E-06 4.16699428E-07
 2 31-4.49152154E-07 1.64132452E-05 6.53640048E-05 2.09313136E-05 1.89111646E-06
 2 32 1.29200562E-06-3.18312208E-06 4.45692942E-06-1.05238544E-06-5.88321592E-08
 2 33 7.46360318E-07 7.50785837E-07-7.94567999E-05-6.24743713E-07-1.36633277E-06
 2 34 7.16755209E-07 1.18970440E-05 4.14865738E-05 1.86301101E-05-1.29235649E-06
 2 35 4.16857812E-07 8.75498682E-07-2.78374584E-06-3.45587308E-07 5.03015286E-07
 2 36-3.89112819E-06-6.67066898E-06 7.61530446E-05 3.15852770E-07 1.04271739E-06
 2 37-1.91202172E-08 5.40792443E-05 1.75395392E-05-1.28421859E-05 1.54715636E-06
 2 38 2.51762205E-07-1.79891856E-06 2.51295245E-06-5.75302377E-07 7.24450061E-07
 2 39 3.29824025E-07 3.14023671E-07-3.82506580E-05 1.77761596E-08-5.40991263E-07
 2 40-4.47256105E-07-2.94025905E-05-1.02263308E-05 5.16394368E-06-4.12604255E-07
 2 41 1.23361378E-07 2.89242877E-07-3.57071943E-07-6.40063905E-08-4.20873396E-07
 2 42-2.34298887E-06-4.00609354E-06 4.17577660E-05-5.99053904E-07-5.98914182E-07
 2 43-1.26238989E-07-1.06615152E-05 1.56228407E-05 1.25715100E-05 6.25287215E-07
 2 44 2.76339857E-07-9.01627072E-07 5.46131289E-07-1.05167925E-06 9.10112199E-07
 2 45-8.30844316E-07-1.62139720E-06 7.67193635E-06 3.86626179E-07-9.93928527E-08
 2 46-4.56017446E-07-8.10124023E-07 5.78260642E-06 4.66211903E-06-3.65362219E-07
 2 47-1.57730064E-07 5.23092284E-07-4.34987542E-07-1.50199824E-07 1.30386931E-07
 2 48-1.94962128E-07-3.67521068E-07 3.48800328E-06-2.86603604E-08 8.83504381E-08
 2 49 1.73005311E-07-1.84615840E-06-8.27683302E-07-1.43670011E-06 2.64796963E-07
 2 50-4.97476962E-07 2.32679999E-07 8.91352512E-08 5.95881050E-07-1.17765173E-07
 2 51-8.56592442E-08-8.22559348E-07-1.05681334E-07 9.86844731E-08 9.52673687E-08
 2 52-3.25383117E-07-3.22117888E-07 1.66746836E-07-1.34123873E-07 1.39379718E-07
 2 53 3.84206186E-08 3.03015364E-07 1.73521107E-08 1.21670514E-07 3.52376314E-07
 2 54 1.15667968E-07 5.82057320E-06 3.43256699E-07-3.40913581E-07-2.56198257E-07
 2 55-1.30227198E-06-6.13596805E-06 9.04342691E-07 4.99488815E-07-1.19596273E-07
 2 56 1.20403785E-04-3.50321685E-06-4.21627950E-06 1.81204295E-05 7.71566631E-08
 2 57-1.56094424E-07-1.08427608E-07 2.23917487E-07-6.37441879E-07-4.08184534E-07
 2 58 5.03474252E-06-1.85409249E-06-4.01336029E-06-4.81738739E-07 1.82099051E-07
 2 59 2.99639688E-07-4.79845173E-07-2.18735949E-07 3.79808156E-07 8.48788665E-08
 2 60-3.36345264E-08-5.12443401E-08 7.64648014E-08 3.69972441E-08-6.29316715E-08
 2 61-2.31209017E-06-1.78058015E-05-3.17074058E-07 5.65544554E-07-8.99828943E-08
 2 62-3.47786576E-07-1.36035848E-06 2.43147260E-07 2.17769906E-07-1.77035553E-07
 2 63 2.90192826E-07 1.05198352E-06 6.17224415E-10 1.70173979E-08 1.70095802E-07
 2 64 2.67792107E-07-2.18679427E-06 1.10192355E-08-2.00641340E-08-5.20670342E-08
 3  1 7.85777655E-05 8.99444131E-05 3.17372581E-03 1.38023517E-05 4.72214568E-05
 3  2 1.05473098E-04-1.84931651E-04 1.26037921E-04 4.68959194E-04 2.57259079E-05
 3  3 5.64777074E-04-5.90502982E-04-1.32721031E-04-5.42951426E-04-1.49030933E-04
 3  4 1.00606987E+00 1.40254899E-02-2.80246995E-02-1.56972545E-04 6.55656268E-04
 3  5 1.56852515E-04 1.34750773E-03-2.52808680E-03-4.06800051E-03 6.39526493E-05
 3  6 4.80363284E-05-1.11988978E-04 3.94559186E-05 1.16785402E-04-6.95181977E-05
 3  7 3.38461634E-04 5.33651634E-04 1.48118351E-03 3.33229213E-05 2.03495162E-05
 3  8-7.22394823E-06 9.81617074E-03 3.39378733E-03-9.62999939E-03-1.80806893E-04
 3  9 4.48874556E-04-2.68067664E-04 2.46032211E-04 3.40423649E-04 1.20943443E-04
 3 10 1.68822201E-05 3.21725151E-06-1.82881781E-03 4.35838252E-05 7.95713678E-05
 3 11 1.32908712E-04-5.03470687E-03-2.98915008E-03 2.36500074E-03 1.09023612E-04
 3 12 2.60241016E-04-3.69264628E-04 3.62792974E-04 1.10741027E-04-1.45419042E-04
 3 13-3.28833936E-04-6.09165759E-04 8.35157449E-03 5.77038569E-05-2.98038695E-05
 3 14-1.63958318E-05-7.23569062E-04-1.51453782E-03-1.52092009E-03-9.62094459E-05
 3 15 1.11039586E-05 8.51054873E-05-5.44378477E-05 3.07158146E-06 6.58390709E-05
 3 16 1.70390795E-04 2.63362902E-04-4.83359168E-03 3.41716680E-05 8.80076489E-05
 3 17 1.22410761E-04 4.31221275E-03 1.95055539E-03-1.05915549E-03-1.09217599E-04
 3 18-1.80006233E-04 2.89223832E-04-3.69250041E-04-3.40505793E-04-3.62460768E-05
 3 19 1.95052585E-04 2.33334408E-04 7.08992733E-03 3.74605268E-05-8.19193782E-06
 3 20-2.08480476E-05-4.62066768E-03-1.21633302E-03 2.02591614E-03-3.35140175E-04
 3 21-3.50597201E-04 6.85737376E-04-8.20205645E-04-5.61288163E-04 2.79400597E-04
 3 22-5.27694472E-04 1.01942546E-03 5.22841189E-04 2.36603970E-04-1.63253418E-04
 3 23-1.85375727E-04-1.27780065E-03-2.20042237E-04-3.78344817E-05 1.37193950E-04
 3 24-8.73724419E-06-6.72826797E-05-9.62848458E-05 1.61494239E-04 9.89715181E-06
 3 25 1.65353459E-05 1.09591369E-05 3.85118537E-05 6.50259659E-05 4.43184478E-05
 3 26-6.44480315E-05-2.00920319E-05 8.50790070E-05 6.56769308E-05-2.09657034E-05
 3 27-4.47112274E-05 9.22387204E-06-3.47039460E-05-7.32166595E-05-8.57029361E-06
 3 28 2.65107019E-06 5.91922342E-06-2.03780706E-06 4.71192548E-06 8.25239925E-06
 3 29-3.96950222E-04-1.52208640E-03 1.89309766E-04 1.72590946E-04-6.36456387E-05
 3 30-3.44988569E-04-6.27358879E-04 7.83720067E-03-1.31800739E-04-8.49906155E-05
 3 31 3.38921437E-05 3.74859741E-04 5.69600135E-03 3.83174751E-03-1.93796781E-04
 3 32 2.13022441E-04-1.92256602E-05 2.95193544E-05 1.57859391E-04 3.64409791E-04
 3 33-5.74291736E-06-1.48606933E-05-2.93098445E-03-2.61388907E-06-1.05208937E-05
 3 34 3.64078665E-05-1.60459331E-03-1.29361731E-05 4.11448151E-04-1.51353131E-04
 3 35 5.56409751E-05 9.57121557E-05-1.06747043E-04-9.58766912E-05 7.72261599E-05
 3 36-6.94567962E-05-1.10741654E-04 1.33278708E-03-5.99704604E-06 3.82632223E-05
 3 37 1.05031815E-05 1.08328841E-03-7.33998523E-04-8.68300537E-04-1.79445130E-05
 3 38 5.26169949E-05-3.46724819E-05 6.11476460E-05-2.59872383E-06 5.36179676E-05
 3 39 4.28029601E-05 5.81620095E-05-2.34552568E-03-3.83724072E-05-1.30269651E-05
 3 40 2.40352444E-05-8.86099992E-04-8.89328370E-04-2.86244829E-04-1.87638359E-05
 3 41 1.83603759E-05 4.03459998E-07-7.93505969E-06 3.80441622E-05-5.93679438E-05
 3 42-1.48909055E-04-2.47708388E-04 2.17468251E-03 1.80832549E-05-4.49463739E-05
 3 43 1.17842165E-05-6.57745728E-05 1.24144618E-03 6.98940806E-04 1.20435049E-04
 3 44-1.92110996E-05-1.01223950E-04 5.46084460E-05-5.60012866E-05 4.74472025E-05
 3 45-1.28067831E-02-2.59914078E-04 9.78988458E-04 3.18040158E-05-1.17600956E-04
 3 46-2.91034742E-05-1.93158498E-04 1.25936576E-03 2.89561185E-04-2.73906963E-05
 3 47-4.57226341E-05 7.31133304E-05-1.76794628E-05 2.50883690E-05-2.56769998E-05
 3 48-6.01427985E-05-1.14134199E-04 6.88449616E-04-3.55771239E-05-1.84936166E-05
 3 49 4.90860176E-05-4.16743729E-04 1.50194137E-04 5.14207653E-06 1.51397813E-04
 3 50-1.73918841E-04 2.25210275E-05-2.97196001E-05 5.12927805E-06 4.18466778E-06
 3 51 5.23412987E-05 3.16797703E-05 1.41409525E-05 5.78127714E-05 3.97381422E-05
 3 52-1.13962747E-04 1.50082879E-04-1.55662573E-05 4.69797337E-05 2.89666869E-05
 3 53 1.32029711E-05-2.36507182E-04 1.04434115E-05-4.04544259E-05 7.33413743E-05
 3 54 6.73998555E-05 3.54101394E-04-1.24737328E-05-1.99936080E-05-3.62800287E-06
 3 55-2.05991937E-05-2.71855653E-04 3.08290038E-05 2.60960551E-05 8.57841724E-06
 3 56-9.24792425E-06-6.35144647E-05-7.02291400E-05 5.02627865E-04 1.04753397E-05
 3 57 2.24230162E-06-5.50880806E-06 3.79248711E-05 9.42665159E-06-2.08148524E-05
 3 58 1.61531033E-04-1.99303597E-05-8.61478508E-05 1.30062600E-05-1.78594944E-05
 3 59 4.85323440E-06-1.49221476E-06-1.05341972E-05-8.28324523E-06-1.39847977E-06
 3 60 2.36620899E-06-9.67729213E-07 3.45988309E-07 9.97687664E-07 1.23440946E-06
 3 61-2.81178129E-05 5.10060571E-05 2.17350369E-05 2.55217642E-05 2.82657708E-05
 3 62-4.26386066E-04-5.24055152E-04 2.51225183E-05-3.78163709E-06-2.14601811E-04
 3 63-7.26325605E-04-2.58288963E-04-8.94281912E-05-2.33970097E-04-1.31261073E-04
 3 64-5.08691449E-04-7.37368205E-04-1.26832912E-04 2.45341050E-05-1.67014670E-04
 4  1-6.03111694E-05-1.15724018E-04 7.87712665E-04-9.51119716E-07 6.36618177E-05
 4  2 1.65227139E-05 1.67536503E-04 1.22957692E-04 4.11876447E-04 2.22867886E-05
 4  3 3.21063428E-07-2.26078520E-05-2.81865091E-05 1.26859966E-04 1.24160803E-04
 4  4 1.27461204E-02 9.65155868E-05 2.59422215E-04 4.75805195E-05 3.83781301E-05
 4  5-1.08166119E-04-5.84703037E-04-3.62950137E-04 9.98523254E-04 9.14370766E-06
 4  6 2.15782930E-05-3.07220006E-05-7.31412232E-05 2.83470249E-05-1.18227211E-05
 4  7-3.36947167E-04-6.14780196E-04 7.86423407E-03 9.70708318E-05 1.26841240E-04
 4  8 2.57966857E-05-5.05631754E-03-4.73238966E-05 4.09661821E-03 2.65225188E-04
 4  9-2.96531834E-04 3.13066468E-05-6.80103048E-06-3.02220602E-04-5.03884801E-05
 4 10-7.90792959E-06-1.92363850E-05-2.93096598E-03-1.55642035E-05 3.59174029E-05
 4 11 1.62251433E-06 5.65635518E-04 9.22063845E-04 1.10617348E-03-7.78137092E-05
 4 12 9.99690436E-06 6.78168048E-05-1.16534499E-04-1.56226532E-04 2.26153312E-05
 4 13-7.76387227E-05-1.26045741E-04 1.53524783E-03-1.89267527E-05-8.48366153E-06
 4 14 3.27935522E-05 2.06482347E-04-8.17588988E-04-1.34779763E-03 4.12889762E-05
 4 15-1.93204402E-05-2.19685359E-05 5.62020724E-05-6.48356717E-05-1.85698364E-06
 4 16 4.53736190E-05 6.18948880E-05-2.43236924E-03 1.48238856E-05 4.34603659E-05
 4 17 2.13170037E-05 1.21442493E-03 6.60553124E-04-1.23124693E-04-1.37414133E-05
 4 18 8.76796964E-06 4.97344367E-06-1.92174247E-05 2.14991199E-05-6.51278532E-05
 4 19-1.44667586E-04-2.43243430E-04 2.34008553E-03 3.13122762E-06 2.25632383E-05
 4 20-4.50932931E-05-1.07952953E-03-7.87117654E-05 1.08634903E-03 1.81122645E-07
 4 21-2.35882677E-05 2.34071450E-05 1.04642723E-04 1.80084507E-06 1.00515239E-04
 4 22 5.40649621E-05 3.76543524E-04 3.17794346E-05 1.83901514E-05-1.11567862E-05
 4 23-2.50877279E-05-2.98485529E-04-4.13131642E-05-2.08264486E-05 3.00977400E-06
 4 24-9.50399498E-06-6.55028503E-05-7.31107147E-05 4.99801441E-04-3.17961350E-06
 4 25-9.27117776E-06-5.24805186E-06-1.13802101E-05-3.47754325E-05-1.80390318E-05
 4 26-3.06222951E-05-1.29296131E-04-1.24425966E-04-7.65981309E-06 1.18789935E-05
 4 27-4.21918044E-06-2.24080349E-06 1.14439159E-05 1.20628822E-05 8.64820945E-07
 4 28-1.49303947E-06 6.28218526E-07 6.77626088E-07-1.59250291E-06-1.28134243E-06
 4 29-3.92615402E-05 1.82336402E-05-3.75368686E-05 5.07766212E-06 7.12384145E-06
 4 30 3.28111016E-04 5.16674917E-04 1.64309301E-03-2.70841742E-05-3.44693182E-05
 4 31-9.36899127E-06-1.21178016E-03-1.31158222E-02-4.65667969E-03 3.12762373E-04
 4 32-2.50990339E-04-6.17720342E-05 2.72552092E-04-2.10882402E-04-3.82041562E-04
 4 33 1.89316781E-05 6.45691882E-06-1.96611591E-03-1.49341036E-04 3.97810538E-05
 4 34 4.54983153E-05 2.78490960E-03 5.50887911E-03 1.30235831E-03 1.02768300E-04
 4 35 4.25798559E-05-1.45348155E-04 4.69798361E-04 3.51062342E-05-2.40183558E-04
 4 36-3.30933183E-04-6.12358593E-04 8.40371243E-03-1.13292881E-05-1.99383497E-05
 4 37-6.26683279E-05 2.16493549E-03-1.03146389E-04-8.11202685E-04 1.65162250E-05
 4 38-3.28000045E-05 1.62837795E-05-1.03306748E-04-7.71541759E-05 4.89223924E-06
 4 39 1.70172055E-04 2.62400952E-04-4.89620487E-03-1.42239971E-04 3.17117697E-05
 4 40 5.81726628E-05-2.81411417E-03-3.69743547E-03-1.47576369E-03-3.79557874E-04
 4 41 1.76802679E-04 2.02755195E-04-3.71247817E-04-4.69427146E-05 2.32360523E-04
 4 42 1.91103521E-04 2.25957603E-04 7.16134697E-03-4.38390988E-06-3.05862398E-05
 4 43-3.24132968E-05 2.02881821E-03 4.20745167E-03 2.33308839E-03-5.28898606E-04
 4 44 6.91397701E-05 4.59758836E-04-9.04578163E-04-2.94979370E-04 5.51896053E-04
 4 45 1.00606559E+00 1.40157867E-02-2.79625321E-02-3.04936142E-04-1.41841197E-04
 4 46 6.17202069E-04 2.98972344E-03-2.36269625E-03-3.17410962E-03 4.92822539E-05
 4 47-4.94820519E-05 1.99798012E-07 9.92235282E-05 9.55176761E-05-1.08984929E-04
 4 48 7.92555750E-05 9.22907319E-05 3.18724194E-03-1.02932263E-04 5.11388155E-05
 4 49 3.80591026E-05-2.57834994E-04 3.68070368E-04 2.62961604E-04-6.34406238E-04
 4 50 1.61506608E-04 4.72899630E-04 5.10253875E-04-2.74125595E-04-5.94311795E-05
 4 51-4.25168016E-04-5.29533471E-04 1.26769431E-04-1.69388678E-04-3.90557353E-05
 4 52-7.28359806E-04-2.54374578E-04 2.44421065E-04 5.84873142E-05-1.27864082E-04
 4 53-5.05932923E-04-7.46780659E-04 1.77719385E-04-8.22994125E-05 8.75619098E-05
 4 54-5.33241596E-04 1.02712874E-03-3.13026319E-04-4.72363406E-04-1.82447858E-04
 4 55-1.85322469E-04-1.27912616E-03 6.11483663E-05 2.20840072E-04 1.29088382E-04
 4 56-8.89347246E-06-6.83484712E-05-9.74113834E-05 1.74709026E-04-2.03824833E-05
 4 57-4.30932724E-06 6.85153134E-06-8.07222521E-05-1.59150756E-05 2.72139888E-05
 4 58-6.40480868E-06 1.02743121E-04 2.94253576E-05-5.80908135E-05 5.27232199E-05
 4 59 5.36759359E-06 5.23086893E-05 6.42351153E-05 8.26889146E-06 6.65589672E-06
 4 60-6.43705441E-06-2.18842303E-07-7.29278698E-06-7.44480248E-06-1.79335094E-06
 4 61-3.99687089E-04-1.52725817E-03-1.49856912E-04-2.14686947E-04-7.10368600E-07
 4 62 4.31460189E-05 2.57471172E-05-6.01738853E-05-5.05793579E-06 3.29112082E-05
 4 63-1.35437999E-04 1.47457226E-04-3.33212634E-05-1.04785209E-06 4.63789686E-05
 4 64-4.50196513E-06-2.65287783E-04-3.99688406E-05 7.25522846E-05-3.71825503E-05
 5  1-1.27186335E-04-8.73157937E-05 2.44288453E-04-4.40998752E-06-3.93511439E-06
 5  2-2.85863934E-05-1.15326613E-05 8.32399754E-05 9.25568937E-05-8.01068163E-06
 5  3-8.64217061E-06 1.66528522E-05 1.79499391E-05-4.88550604E-05-1.82771256E-06
 5  4-1.29145749E-04-2.73605324E-04 6.74681940E-04-7.95330443E-05-6.58863448E-05
 5  5-4.74322864E-05 2.27988269E-04-2.21929318E-05-8.19188836E-05-4.89875305E-05
 5  6 3.02679079E-05 1.87196227E-05-8.86465981E-05 8.33223329E-05 5.42276297E-05
 5  7-1.76046690E-04-1.94515559E-04-1.76422374E-03-1.12727856E-04-8.12669866E-05
 5  8-6.53528032E-05 5.52982831E-04 9.91227178E-04 3.65513567E-04-6.39934878E-05
 5  9-2.03505501E-04 2.67498989E-04-1.94658389E-04-2.66060594E-04 2.29113083E-04
 5 10 6.69539979E-03-1.68194450E-03 1.17150051E-02-9.84551040E-04-7.08163312E-04
 5 11 1.19940179E-04 6.31940815E-03 3.53909579E-03-1.83772829E-03-2.63942810E-04
 5 12-3.49367375E-04 6.13310184E-04-1.01969891E-03-3.06786191E-04-1.87357697E-04
 5 13 1.00647649E+00 1.60952891E-02-3.00758556E-02-4.89026953E-05-1.69575629E-04
 5 14-9.26818454E-05 2.38053449E-03 5.72209227E-03 4.25891609E-03 5.17035992E-04
 5 15-2.74719400E-04-2.42316593E-04 2.34213198E-04-3.85896025E-04-4.35436883E-04
 5 16 2.57780368E-03-1.16503610E-03 8.08054077E-03 6.55963361E-04 1.45328902E-05
 5 17-5.42488217E-04-4.96212292E-03-1.61786197E-03 2.53542740E-03 1.07719814E-04
 5 18 5.86063030E-04-6.93782844E-04 5.55279385E-04 1.17171481E-03-3.62928939E-04
 5 19-6.41376940E-04-4.28076336E-04-1.12272937E-03 5.60362435E-05-1.20332124E-04
 5 20-1.68297631E-04 1.05145818E-03 6.15251887E-04-3.56905542E-04 2.19652578E-04
 5 21 5.04834530E-05-2.70136031E-04 4.32819663E-04 1.55531675E-04 1.30906851E-04
 5 22 5.38577965E-05-7.88695348E-06-1.42180043E-04-7.04388895E-05 4.33412582E-05
 5 23-2.76338631E-04 1.56714660E-03 2.45347426E-04-3.23035366E-05-2.94373671E-04
 5 24 2.73131498E-05 2.30398930E-04 1.76307344E-04 1.92142021E-04-1.61183823E-05
 5 25-6.02510933E-05-5.78745921E-05-1.82413643E-05 1.77795404E-07 1.33591806E-05
 5 26-1.26567000E-04-2.18568714E-04-8.84678513E-05 2.56678936E-04-7.46519871E-05
 5 27-1.82026949E-04-1.65462863E-04 2.00383000E-05-5.97759057E-04-4.95228401E-05
 5 28 1.76938945E-05 3.18289456E-05 2.95305064E-05 2.28180983E-06 1.09382407E-04
 5 29-2.41520635E-04 1.21031459E-03-2.11043188E-04-1.76546481E-04-2.19357838E-05
 5 30-1.76472951E-04-1.33666634E-04 1.33933051E-03 7.05131831E-05 2.18909782E-05
 5 31-3.93840504E-05 8.19792695E-04 1.32044139E-03-1.07407809E-04 1.05867425E-04
 5 32-3.23795812E-05-7.34878435E-05 1.75250089E-04-4.39355893E-05-1.00211870E-04
 5 33-4.21179737E-05 4.80803522E-05-2.80857157E-03-4.66444241E-05-4.51909948E-05
 5 34 2.70651386E-06 1.78405300E-03 1.70430734E-03 2.84938380E-04-9.03610175E-06
 5 35-2.42652695E-05 3.33013712E-05-9.87672270E-05-2.38847297E-05-1.38945643E-06
 5 36-6.96396402E-03-3.67029647E-04 3.43632224E-03 2.68647832E-05 2.92268638E-05
 5 37 6.97699523E-07 2.08904294E-03 1.36344437E-03-1.62906382E-04 5.77254454E-05
 5 38 1.37919159E-05-7.15173613E-05 1.03535819E-04-2.53998391E-05 2.26667434E-05
 5 39-3.61747990E-05-4.50965661E-06-8.62348122E-04 7.49339461E-06-1.16918372E-05
 5 40-1.52075278E-05-1.10507940E-03-1.97220241E-04 3.63369165E-04-1.64028115E-05
 5 41 8.94595373E-07 1.55082162E-05-1.36143286E-05-6.22172844E-06-2.33445671E-06
 5 42-2.34300907E-04-1.08494496E-04 1.36781983E-03-1.82345048E-05-1.24400723E-05
 5 43 1.96933874E-06-3.85262661E-04 3.48794287E-04 3.22651747E-04 2.58955742E-05
 5 44-3.27949931E-06-2.26160749E-05 9.67329540E-06-3.15461830E-05 1.98738663E-05
 5 45-2.84651310E-05-4.96057502E-05 1.97246242E-04 6.21369869E-06 8.43069717E-06
 5 46-7.37284063E-06-8.90372711E-05 2.66275489E-04 2.12364346E-04-2.63929604E-05
 5 47 2.19466602E-05 4.44630020E-06-1.61554819E-05-1.26275722E-05 2.89714081E-05
 5 48-6.60975843E-05-3.45559543E-05 1.30041194E-04-4.07781654E-06-1.31507850E-05
 5 49 1.25316903E-06-1.10121439E-04 8.68712362E-05-3.43239988E-05 1.31023430E-05
 5 50-1.56108715E-05 2.50852849E-06 5.07296815E-06 2.35322656E-05-5.42770709E-06
 5 51 1.79126162E-05 2.72008722E-05-1.79126261E-06 7.41157598E-06 5.54793634E-06
 5 52-3.56142429E-05 6.62064372E-05 3.01896565E-06-2.60156386E-06 1.46970227E-05
 5 53-2.27375454E-05 2.83169562E-05 5.41909003E-06-8.83802804E-06 7.42070127E-06
 5 54-1.17282831E-05 1.22621181E-04 1.12282340E-05-4.74582754E-06-4.56542885E-06
 5 55-6.19018968E-05-2.12299560E-04 3.10558413E-05 1.46708053E-05-9.12224446E-06
 5 56-1.63416190E-05-1.19303677E-04-1.38020102E-04 5.40741553E-04-2.68818889E-06
 5 57-5.45671186E-06-1.91699747E-06-8.74426014E-06-2.22239307E-05-8.79176170E-06
 5 58 1.35783889E-04-1.16959451E-04-1.35166647E-04-2.34451388E-05 1.49083495E-05
 5 59 8.53678932E-06-2.59036595E-05-7.48841677E-06 2.56526902E-05 2.40852315E-06
 5 60-1.64326702E-06-7.65256123E-07 2.88524671E-06 1.21067645E-06-3.06686673E-06
 5 61-7.60914205E-05-1.31568741E-04-2.96605347E-05-8.35775427E-06-8.68433839E-06
 5 62-2.82538815E-05-1.83556268E-05 1.94657596E-05 5.49291696E-06-1.21370239E-05
 5 63-1.00455981E-05 1.09800202E-05-1.35644030E-06 2.49975993E-06-1.11176149E-05
 5 64-1.06326923E-05-3.16501062E-05 7.21398206E-06-5.71958703E-06-7.38219458E-07
 6  1-6.99128404E-05-3.63614950E-05 1.33303281E-04 7.41318069E-06 8.98872382E-06
 6  2-7.77233214E-06 5.07258654E-05-1.60430900E-05 1.34618843E-04 1.89001334E-05
 6  3-8.28977281E-06-1.06103606E-05-1.85365728E-06 2.20389503E-05-4.17779025E-06
 6  4-3.04127447E-05-5.36145564E-05 2.11266275E-04-3.25148938E-06-1.32725244E-05
 6  5 1.18490476E-06-2.09782561E-04 6.65315865E-05 2.77440721E-04-5.51399436E-06
 6  6-1.45158896E-05 2.00298839E-05-1.27735586E-05-3.75771627E-05 4.51374440E-06
 6  7-1.79312856E-04-1.34172028E-04 1.28673392E-03-2.92562069E-05-7.25995649E-05
 6  8-3.46214971E-05-9.93167519E-04-1.05530624E-03 4.59986231E-04 1.34792038E-06
 6  9 1.24629895E-04-1.25977815E-04 1.58650490E-04 7.25976695E-05 1.52665699E-05
 6 10 4.96980703E-05 2.65898257E-05-2.67120920E-03 3.37495025E-05 3.56210798E-05
 6 11-1.66235851E-06-1.95904508E-03-1.37028039E-03 1.13760626E-04-6.14835229E-05
 6 12-1.59969861E-05 7.74805090E-05-8.70564253E-05 7.13887746E-06 2.11282828E-05
 6 13 6.66168625E-03-1.49276169E-04 3.04449784E-03-3.10561576E-05-2.85349378E-05
 6 14 2.79737385E-06-1.73974717E-03-1.64989457E-03-3.03473676E-04 4.36138077E-05
 6 15 1.05396876E-05-5.41534953E-05 1.20754641E-04-1.68919838E-05 2.57370323E-05
 6 16-1.06936155E-06-1.96147730E-05-7.56744102E-04 1.96195753E-05-9.27120071E-06
 6 17-2.23748826E-05 4.56352683E-04 8.44729983E-04 6.46095563E-04-9.42574140E-06
 6 18 1.42003739E-05-4.77463245E-06-1.21654168E-05 7.75901297E-06-7.54296929E-06
 6 19-2.66283707E-04-1.13401135E-04 1.35833071E-03 1.56691239E-05 1.40350849E-05
 6 20 8.99796145E-07-1.17405634E-04 2.49233254E-04 5.40279059E-04-5.35384682E-06
 6 21 2.05491452E-06 3.29893230E-06 3.59090600E-05-6.41619837E-06 3.69886795E-05
 6 22-1.11719954E-05 1.20776550E-04-3.76409594E-06-6.87799635E-06-1.07544747E-05
 6 23-6.63785785E-05-1.92093836E-04-1.61972152E-05-2.81132805E-05-1.43162392E-05
 6 24-1.59177483E-05-1.15804423E-04-1.35234115E-04 5.38927581E-04 5.00248659E-06