!   File created by the GAMESS Input Deck Generator Plugin for Avogadro
 $BASIS GBASIS=CCD $END
 $CONTRL SCFTYP=RHF RUNTYP=OPTIMIZE EXETYP=run DFTTYP=B3LYP ISPHER=1
ICHARG=0 MULT=1 $END
 $SYSTEM MWORDS=300 TIMLIM=648 PARALL=.TRUE. $END
 $DFT NRAD=96 NLEB=302 $END
 $SCF DIRSCF=.TRUE. $END
 $STATPT OPTTOL=0.0001 NSTEP=200 HSSEND=.TRUE. $END
 $PCM SOLVNT=DMF SMD=.TRUE. $END
 $FORCE METHOD=SEMINUM $END

 $DATA 
Title
C1
N     7.0    -2.62723     4.30700     0.06076
C     6.0    -3.74906     3.45510     0.01273
C     6.0    -3.72653     2.12367    -0.01807
C     6.0    -2.44955     1.49900    -0.00086
C     6.0    -1.33237     2.24022     0.02817
C     6.0    -1.26766     3.76035     0.04254
C     6.0     0.01036     4.36178     0.03877
C     6.0     1.21869     3.43367     0.01842
C     6.0     2.50550     3.81361     0.01874
C     6.0     2.84511     5.19387     0.03825
C     6.0     1.83923     6.06520     0.04984
N     7.0     0.46406     5.75426     0.04264
C     6.0    -2.99207     5.71002     0.18148
H     1.0    -4.07785     5.86380     0.25675
H     1.0    -2.72571     6.25652    -0.72069
H     1.0    -2.61033     6.12928     1.11026
C     6.0    -0.38005     6.93810    -0.00088
H     1.0     0.19687     7.87282    -0.04215
H     1.0    -0.94986     7.03978     0.92023
H     1.0    -0.96722     6.95919    -0.91683
H     1.0     1.12802     2.36377    -0.00444
H     1.0     3.30724     3.08352     0.00108
H     1.0     3.88275     5.50253     0.03649
H     1.0     2.08165     7.12498     0.05921
H     1.0    -2.40459     0.41535    -0.00697
H     1.0    -0.45432     1.62208     0.04866
H     1.0    -4.71675     3.95011     0.01065
H     1.0    -4.62886     1.52649    -0.04287
 $END
