 $CONTRL SCFTYP=RHF RUNTYP=HESSIAN EXETYP=RUN
 MAXIT=200 ICHARG=2 MULT=1 ISPHER=1
 COORD=CART UNITS=ANGS $END
 $BASIS GBASIS=CCD $END
 $SYSTEM TIMLIM=1300 MWORDS=100 PARALL=.TRUE. $END
 $SCF DIRSCF=.TRUE. $END 
 $STATPT HESS=READ $END

 $DATA
bpy.mol
C1
C      6.0     -1.2358000000    1.3854000000    2.5221000000 
C      6.0     -0.7442000000    1.9412000000    1.2753000000 
C      6.0     -0.1823000000    1.0903000000    0.3914000000 
C      6.0     -0.0596000000   -0.3738000000    0.6030000000 
N      7.0     -0.4742000000   -0.8235000000    1.8964000000 
C      6.0     -1.0848000000    0.0788000000    2.7694000000 
C      6.0      0.3208000000   -1.1591000000   -0.4584000000 
C      6.0      0.0984000000   -2.0365000000    2.5072000000 
C      6.0     -0.2059000000   -2.5460000000   -0.5289000000 
C      6.0     -0.0670000000   -3.3172000000   -1.6236000000 
C      6.0      0.6267000000   -2.8139000000   -2.7845000000 
C      6.0      1.1646000000   -1.5909000000   -2.7196000000 
N      7.0      1.0950000000   -0.7607000000   -1.5965000000 
C      6.0      2.1250000000    0.2901000000   -1.4938000000 
C      6.0     -0.6831000000   -4.6684000000   -1.6301000000 
O      8.0     -0.5884000000   -5.4460000000   -2.5735000000 
N      7.0     -0.9197000000    3.3028000000    1.0866000000 
C      6.0     -0.8119000000    3.9941000000   -0.1811000000 
H      1.0     -1.6978000000    2.0344000000    3.2551000000 
H      1.0      0.1052000000    1.4801000000   -0.5738000000 
H      1.0     -1.4113000000   -0.3488000000    3.7130000000 
H      1.0      0.9508000000   -2.4308000000    1.9445000000 
H      1.0     -0.6688000000   -2.8130000000    2.5924000000 
H      1.0      0.4745000000   -1.8236000000    3.5157000000 
H      1.0     -0.8110000000   -2.8997000000    0.2961000000 
H      1.0      0.7104000000   -3.4332000000   -3.6707000000 
H      1.0      1.7238000000   -1.1824000000   -3.5570000000 
H      1.0      3.0697000000   -0.0489000000   -1.9370000000 
H      1.0      2.3570000000    0.5525000000   -0.4565000000 
H      1.0      1.8056000000    1.1868000000   -2.0348000000 
H      1.0     -1.2415000000   -4.9440000000   -0.7197000000 
H      1.0     -1.6219000000    3.7004000000    1.7047000000 
H      1.0      0.1854000000    3.8710000000   -0.6148000000 
H      1.0     -0.9789000000    5.0650000000   -0.0297000000 
H      1.0     -1.5622000000    3.6281000000   -0.8888000000 
 $END


