 $CONTRL SCFTYP=RHF RUNTYP=HESSIAN EXETYP=RUN
 MAXIT=200 ICHARG=2 MULT=1 ISPHER=1
 COORD=CART UNITS=ANGS $END
 $BASIS GBASIS=CCD $END
 $SYSTEM TIMLIM=1300 MWORDS=100 PARALL=.TRUE. $END
 $SCF DIRSCF=.TRUE. $END 
 $STATPT HESS=READ $END

 $DATA
bpy.mol
C1
C      6.0      1.8824000000   -0.8374000000   -2.2675000000 
C      6.0      2.3966000000   -0.4610000000   -0.9674000000 
C      6.0      1.5397000000   -0.1475000000    0.0271000000 
C      6.0      0.0657000000   -0.2052000000   -0.1409000000 
N      7.0     -0.3536000000   -0.3480000000   -1.5049000000 
C      6.0      0.5649000000   -0.7433000000   -2.4790000000 
C      6.0     -0.7858000000   -0.1380000000    0.9389000000 
C      6.0     -1.5831000000    0.3083000000   -1.9868000000 
C      6.0     -0.3380000000    0.3884000000    2.2536000000 
C      6.0     -1.2038000000    0.7071000000    3.2322000000 
C      6.0     -2.6183000000    0.5099000000    3.0471000000 
C      6.0     -3.0257000000   -0.1133000000    1.9352000000 
N      7.0     -2.1651000000   -0.5364000000    0.9171000000 
C      6.0     -2.5883000000   -1.7272000000    0.1586000000 
C      6.0      3.8476000000   -0.4112000000   -0.6677000000 
O      8.0      4.6135000000   -0.7446000000   -1.7236000000 
O      8.0      4.3605000000   -0.1092000000    0.3966000000 
H      1.0      2.5618000000   -1.1380000000   -3.0560000000 
H      1.0      1.9563000000    0.1009000000    0.9940000000 
H      1.0      0.1342000000   -0.9455000000   -3.4555000000 
H      1.0     -2.0912000000    0.8990000000   -1.2194000000 
H      1.0     -2.2781000000   -0.4374000000   -2.3855000000 
H      1.0     -1.3434000000    1.0083000000   -2.7970000000 
H      1.0      0.7073000000    0.5855000000    2.4445000000 
H      1.0     -0.8590000000    1.1164000000    4.1752000000 
H      1.0     -3.3091000000    0.8138000000    3.8234000000 
H      1.0     -4.0717000000   -0.3575000000    1.7754000000 
H      1.0     -3.4047000000   -1.4688000000   -0.5237000000 
H      1.0     -1.7810000000   -2.1913000000   -0.4146000000 
H      1.0     -2.9561000000   -2.4991000000    0.8459000000 
H      1.0      5.5254000000   -0.6651000000   -1.3752000000 
 $END


