 $CONTRL SCFTYP=RHF RUNTYP=HESSIAN EXETYP=RUN
 MAXIT=200 ICHARG=2 MULT=1 ISPHER=1
 COORD=CART UNITS=ANGS $END
 $BASIS GBASIS=CCD $END
 $SYSTEM TIMLIM=1300 MWORDS=100 PARALL=.TRUE. $END
 $SCF DIRSCF=.TRUE. $END 
 $STATPT HESS=READ $END

 $DATA
bpy.mol
C1
C      6.0     -2.1457000000   -0.8126000000   -2.3839000000 
C      6.0     -0.9765000000   -1.6367000000   -2.1913000000 
C      6.0     -0.1785000000   -1.4202000000   -1.1232000000 
C      6.0     -0.4326000000   -0.3309000000   -0.1421000000 
N      7.0     -1.7244000000    0.2776000000   -0.2735000000 
C      6.0     -2.4738000000    0.0684000000   -1.4326000000 
C      6.0      0.5177000000    0.0438000000    0.7814000000 
C      6.0     -2.4693000000    0.7257000000    0.9170000000 
C      6.0      1.6505000000   -0.8474000000    1.1406000000 
C      6.0      2.4373000000   -0.6164000000    2.2068000000 
C      6.0      2.2253000000    0.5447000000    3.0317000000 
C      6.0      1.3120000000    1.4389000000    2.6357000000 
N      7.0      0.5156000000    1.2895000000    1.4961000000 
C      6.0      0.0769000000    2.5324000000    0.8363000000 
O      8.0     -0.8242000000   -2.5774000000   -3.1809000000 
C      6.0      0.2944000000   -3.4500000000   -3.0941000000 
H      1.0     -2.7585000000   -0.9576000000   -3.2648000000 
H      1.0      0.7073000000   -2.0221000000   -1.0103000000 
H      1.0     -3.3828000000    0.6585000000   -1.5009000000 
H      1.0     -1.9287000000    0.5713000000    1.8549000000 
H      1.0     -2.7272000000    1.7856000000    0.8237000000 
H      1.0     -3.4049000000    0.1602000000    1.0101000000 
H      1.0      1.8407000000   -1.7521000000    0.5821000000 
H      1.0      3.2410000000   -1.2950000000    2.4697000000 
H      1.0      2.8351000000    0.6964000000    3.9134000000 
H      1.0      1.1589000000    2.3676000000    3.1774000000 
H      1.0      0.9082000000    3.2470000000    0.7895000000 
H      1.0     -0.2539000000    2.3865000000   -0.1957000000 
H      1.0     -0.7322000000    2.9977000000    1.4084000000 
H      1.0      0.2524000000   -4.0526000000   -2.1809000000 
H      1.0      1.2337000000   -2.8903000000   -3.1520000000 
H      1.0      0.2565000000   -4.1319000000   -3.9488000000 
 $END


