 $CONTRL SCFTYP=RHF RUNTYP=HESSIAN EXETYP=RUN
 MAXIT=200 ICHARG=2 MULT=1 ISPHER=1
 COORD=CART UNITS=ANGS $END
 $BASIS GBASIS=CCD $END
 $SYSTEM TIMLIM=1300 MWORDS=100 PARALL=.TRUE. $END
 $SCF DIRSCF=.TRUE. $END 
 $STATPT HESS=READ $END

 $DATA
bpy.mol
C1
C      6.0     -1.1900000000   -1.7813000000    2.8074000000 
C      6.0     -0.6302000000   -0.4559000000    2.9384000000 
C      6.0     -0.1085000000    0.1955000000    1.8793000000 
C      6.0     -0.1204000000   -0.4056000000    0.5213000000 
N      7.0     -0.4586000000   -1.8001000000    0.5097000000 
C      6.0     -1.0591000000   -2.3905000000    1.6239000000 
C      6.0      0.1592000000    0.3418000000   -0.6004000000 
C      6.0      0.1684000000   -2.7198000000   -0.4615000000 
C      6.0      0.8725000000    1.6407000000   -0.5141000000 
C      6.0      1.3852000000    2.2439000000   -1.6009000000 
C      6.0      1.2259000000    1.6658000000   -2.9098000000 
C      6.0      0.4494000000    0.5821000000   -3.0234000000 
N      7.0     -0.1743000000   -0.0460000000   -1.9411000000 
C      6.0     -1.4535000000   -0.7222000000   -2.2320000000 
Cl    17.0      2.2598000000    3.7238000000   -1.4686000000 
N      7.0     -0.6242000000    0.2214000000    4.2394000000 
O      8.0     -1.1171000000   -0.3897000000    5.1990000000 
O      8.0     -0.1328000000    1.3575000000    4.3156000000 
H      1.0     -1.6516000000   -2.2762000000    3.6540000000 
H      1.0      0.2756000000    1.1975000000    2.0099000000 
H      1.0     -1.3934000000   -3.4139000000    1.4742000000 
H      1.0      0.9027000000   -2.2328000000   -1.1093000000 
H      1.0     -0.5985000000   -3.1967000000   -1.0798000000 
H      1.0      0.7114000000   -3.5123000000    0.0685000000 
H      1.0      1.0502000000    2.1090000000    0.4434000000 
H      1.0      1.6826000000    2.1340000000   -3.7728000000 
H      1.0      0.2304000000    0.1434000000   -3.9928000000 
H      1.0     -1.2723000000   -1.6478000000   -2.7880000000 
H      1.0     -2.0386000000   -0.9542000000   -1.3380000000 
H      1.0     -2.0868000000   -0.0753000000   -2.8517000000 
 $END


