 $CONTRL SCFTYP=RHF RUNTYP=HESSIAN EXETYP=RUN
 MAXIT=200 ICHARG=2 MULT=1 ISPHER=1
 COORD=CART UNITS=ANGS $END
 $BASIS GBASIS=CCD $END
 $SYSTEM TIMLIM=1300 MWORDS=100 PARALL=.TRUE. $END
 $SCF DIRSCF=.TRUE. $END 
 $STATPT HESS=READ $END

 $DATA
bpy.mol
C1
C      6.0     -3.0542000000    0.7348000000   -1.5224000000 
C      6.0     -2.8677000000    0.3105000000   -0.1557000000 
C      6.0     -1.6507000000   -0.1131000000    0.2497000000 
C      6.0     -0.4669000000   -0.1278000000   -0.6519000000 
N      7.0     -0.7880000000    0.0848000000   -2.0334000000 
C      6.0     -2.0422000000    0.5874000000   -2.3841000000 
C      6.0      0.8095000000   -0.3111000000   -0.1676000000 
C      6.0     -0.0423000000   -0.6145000000   -3.0960000000 
C      6.0      1.0596000000   -0.9253000000    1.1645000000 
C      6.0      2.2836000000   -1.3444000000    1.5532000000 
C      6.0      3.4105000000   -1.1648000000    0.6698000000 
C      6.0      3.2335000000   -0.4812000000   -0.4658000000 
N      7.0      2.0051000000    0.0380000000   -0.8785000000 
C      6.0      2.0550000000    1.2483000000   -1.7193000000 
O      8.0      2.6294000000   -1.9596000000    2.7319000000 
C      6.0      1.5994000000   -2.1897000000    3.6836000000 
O      8.0     -4.0176000000    0.4092000000    0.5894000000 
C      6.0     -3.9558000000    0.0176000000    1.9541000000 
H      1.0     -4.0188000000    1.1163000000   -1.8334000000 
H      1.0     -1.5212000000   -0.3916000000    1.2817000000 
H      1.0     -2.1597000000    0.8273000000   -3.4367000000 
H      1.0      0.3808000000    0.1100000000   -3.7992000000 
H      1.0      0.7593000000   -1.2554000000   -2.7185000000 
H      1.0     -0.7168000000   -1.2725000000   -3.6580000000 
H      1.0      0.2243000000   -1.1002000000    1.8210000000 
H      1.0      4.3820000000   -1.5419000000    0.9645000000 
H      1.0      4.0670000000   -0.2613000000   -1.1262000000 
H      1.0      2.7988000000    1.9508000000   -1.3233000000 
H      1.0      2.3524000000    0.9865000000   -2.7399000000 
H      1.0      1.1096000000    1.7968000000   -1.7528000000 
H      1.0      0.8363000000   -2.8635000000    3.2802000000 
H      1.0      2.0486000000   -2.6745000000    4.5555000000 
H      1.0      1.1535000000   -1.2464000000    4.0156000000 
H      1.0     -3.6878000000   -1.0399000000    2.0475000000 
H      1.0     -4.9510000000    0.1517000000    2.3884000000 
H      1.0     -3.2574000000    0.6498000000    2.5122000000 
 $END


