 $CONTRL SCFTYP=RHF RUNTYP=HESSIAN EXETYP=RUN
 MAXIT=200 ICHARG=2 MULT=1 ISPHER=1
 COORD=CART UNITS=ANGS $END
 $BASIS GBASIS=CCD $END
 $SYSTEM TIMLIM=1300 MWORDS=100 PARALL=.TRUE. $END
 $SCF DIRSCF=.TRUE. $END 
 $STATPT HESS=READ $END

 $DATA
bpy.mol
C1
C      6.0      1.9779000000    1.5262000000    1.9822000000 
C      6.0      2.3701000000    0.2431000000    1.4413000000 
C      6.0      1.5642000000   -0.3955000000    0.5721000000 
C      6.0      0.2382000000    0.1373000000    0.1929000000 
N      7.0      0.1240000000    1.5467000000    0.4381000000 
C      6.0      0.9151000000    2.1297000000    1.4339000000 
C      6.0     -0.7196000000   -0.6905000000   -0.3472000000 
C      6.0     -0.4775000000    2.4593000000   -0.5481000000 
C      6.0     -2.0557000000   -0.1341000000   -0.6801000000 
C      6.0     -2.9030000000   -0.7654000000   -1.5106000000 
C      6.0     -2.5561000000   -2.0415000000   -2.0729000000 
C      6.0     -1.4731000000   -2.6590000000   -1.5836000000 
N      7.0     -0.6246000000   -2.0959000000   -0.6209000000 
C      6.0      0.1152000000   -3.0342000000    0.2352000000 
O      8.0     -4.1445000000   -0.2979000000   -1.8577000000 
C      6.0      3.6764000000   -0.3671000000    1.8009000000 
O      8.0      4.0401000000   -1.4764000000    1.4265000000 
H      1.0      2.5737000000    2.0090000000    2.7466000000 
H      1.0      1.9026000000   -1.3144000000    0.1123000000 
H      1.0      0.6193000000    3.1356000000    1.7182000000 
H      1.0      0.1793000000    3.3196000000   -0.7278000000 
H      1.0     -0.6250000000    1.9827000000   -1.5228000000 
H      1.0     -1.4336000000    2.8433000000   -0.1781000000 
H      1.0     -2.3554000000    0.7896000000   -0.2074000000 
H      1.0     -3.2041000000   -2.5020000000   -2.8072000000 
H      1.0     -1.2060000000   -3.6636000000   -1.8977000000 
H      1.0      0.2761000000   -2.6363000000    1.2422000000 
H      1.0     -0.4514000000   -3.9643000000    0.3702000000 
H      1.0      1.0730000000   -3.2996000000   -0.2233000000 
H      1.0     -4.2965000000    0.5323000000   -1.3778000000 
H      1.0      4.3162000000    0.2532000000    2.4507000000 
 $END


