 $CONTRL SCFTYP=RHF RUNTYP=HESSIAN EXETYP=RUN
 MAXIT=200 ICHARG=2 MULT=1 ISPHER=1
 COORD=CART UNITS=ANGS $END
 $BASIS GBASIS=CCD $END
 $SYSTEM TIMLIM=1300 MWORDS=100 PARALL=.TRUE. $END
 $SCF DIRSCF=.TRUE. $END 
 $STATPT HESS=READ $END

 $DATA
bpy.mol
C1
C      6.0     -2.9147000000   -0.2021000000    2.4411000000 
C      6.0     -3.2385000000    0.1688000000    1.0886000000 
C      6.0     -2.3015000000    0.1053000000    0.1276000000 
C      6.0     -0.9080000000   -0.3301000000    0.3922000000 
N      7.0     -0.6805000000   -0.8020000000    1.7284000000 
C      6.0     -1.6837000000   -0.6623000000    2.6943000000 
C      6.0      0.0345000000   -0.1497000000   -0.5917000000 
C      6.0      0.3792000000   -1.7825000000    2.0231000000 
C      6.0      1.4408000000    0.1016000000   -0.1801000000 
C      6.0      2.4030000000    0.4842000000   -1.0449000000 
C      6.0      2.0724000000    0.6551000000   -2.4383000000 
C      6.0      0.8277000000    0.3818000000   -2.8451000000 
N      7.0     -0.1950000000   -0.0643000000   -2.0034000000 
C      6.0     -1.3067000000   -0.7849000000   -2.6478000000 
O      8.0      3.7138000000    0.7877000000   -0.7676000000 
C      6.0      4.1346000000    0.6969000000    0.5871000000 
H      1.0     -3.6673000000   -0.1173000000    3.2149000000 
H      1.0     -4.2351000000    0.5398000000    0.8781000000 
H      1.0     -2.5573000000    0.4914000000   -0.8501000000 
H      1.0     -1.4031000000   -0.9873000000    3.6920000000 
H      1.0      1.1713000000   -1.3154000000    2.6176000000 
H      1.0      0.8142000000   -2.2188000000    1.1179000000 
H      1.0     -0.0213000000   -2.6245000000    2.6013000000 
H      1.0      1.6592000000    0.0713000000    0.8763000000 
H      1.0      2.8378000000    0.9893000000   -3.1276000000 
H      1.0      0.5525000000    0.4713000000   -3.8920000000 
H      1.0     -1.7650000000   -1.5288000000   -1.9881000000 
H      1.0     -2.0701000000   -0.0772000000   -2.9869000000 
H      1.0     -0.9531000000   -1.3398000000   -3.5259000000 
H      1.0      5.1962000000    0.9583000000    0.6281000000 
H      1.0      3.5888000000    1.4082000000    1.2156000000 
H      1.0      4.0249000000   -0.3249000000    0.9652000000 
 $END


