 $CONTRL SCFTYP=RHF RUNTYP=HESSIAN EXETYP=RUN
 MAXIT=200 ICHARG=2 MULT=1 ISPHER=1
 COORD=CART UNITS=ANGS $END
 $BASIS GBASIS=CCD $END
 $SYSTEM TIMLIM=1300 MWORDS=100 PARALL=.TRUE. $END
 $SCF DIRSCF=.TRUE. $END 
 $STATPT HESS=READ $END

 $DATA
bpy.mol
C1
C      6.0     -2.3409000000   -2.8152000000    0.1995000000 
C      6.0     -1.3370000000   -2.5614000000    1.2008000000 
C      6.0     -0.5040000000   -1.5119000000    1.0894000000 
C      6.0     -0.5501000000   -0.5875000000   -0.0706000000 
N      7.0     -1.3923000000   -1.0451000000   -1.1413000000 
C      6.0     -2.3086000000   -2.0770000000   -0.9162000000 
C      6.0      0.1526000000    0.5962000000   -0.0743000000 
C      6.0     -1.0514000000   -0.7586000000   -2.5458000000 
C      6.0      1.2929000000    0.8266000000    0.8501000000 
C      6.0      2.1597000000    1.8494000000    0.6998000000 
C      6.0      1.9652000000    2.7932000000   -0.3808000000 
C      6.0      0.8573000000    2.6914000000   -1.1241000000 
N      7.0     -0.1083000000    1.6959000000   -0.9565000000 
C      6.0     -1.4944000000    2.0693000000   -1.2919000000 
C      6.0      3.3382000000    2.0697000000    1.5975000000 
O      8.0     -1.3566000000   -3.3797000000    2.3083000000 
C      6.0     -0.5480000000   -4.5349000000    2.0893000000 
H      1.0     -3.0650000000   -3.6053000000    0.3488000000 
H      1.0      0.1657000000   -1.3307000000    1.9168000000 
H      1.0     -2.9965000000   -2.2612000000   -1.7358000000 
H      1.0     -0.0974000000   -0.2368000000   -2.6634000000 
H      1.0     -1.8454000000   -0.1699000000   -3.0157000000 
H      1.0     -0.9537000000   -1.6952000000   -3.1088000000 
H      1.0      1.4860000000    0.1238000000    1.6481000000 
H      1.0      2.6810000000    3.5907000000   -0.5406000000 
H      1.0      0.6285000000    3.4182000000   -1.8978000000 
H      1.0     -1.7339000000    3.0489000000   -0.8599000000 
H      1.0     -1.6119000000    2.1430000000   -2.3781000000 
H      1.0     -2.2431000000    1.3740000000   -0.9027000000 
H      1.0      3.4021000000    1.3084000000    2.3824000000 
H      1.0      4.2709000000    2.0332000000    1.0244000000 
H      1.0      3.2705000000    3.0463000000    2.0887000000 
H      1.0      0.4941000000   -4.2555000000    1.8988000000 
H      1.0     -0.5766000000   -5.1428000000    2.9985000000 
H      1.0     -0.9371000000   -5.1398000000    1.2631000000 
 $END


