 $CONTRL SCFTYP=RHF RUNTYP=HESSIAN EXETYP=RUN
 MAXIT=200 ICHARG=2 MULT=1 ISPHER=1
 COORD=CART UNITS=ANGS $END
 $BASIS GBASIS=CCD $END
 $SYSTEM TIMLIM=1300 MWORDS=100 PARALL=.TRUE. $END
 $SCF DIRSCF=.TRUE. $END 
 $STATPT HESS=READ $END

 $DATA
bpy.mol
C1
C      6.0     -2.8384000000   -1.3307000000   -0.4404000000 
C      6.0     -2.3489000000   -0.9508000000    0.8714000000 
C      6.0     -1.0357000000   -0.6534000000    0.9919000000 
C      6.0     -0.0842000000   -0.6437000000   -0.1488000000 
N      7.0     -0.5943000000   -1.2699000000   -1.3297000000 
C      6.0     -1.9665000000   -1.4948000000   -1.4424000000 
C      6.0      1.1585000000   -0.0581000000   -0.0551000000 
C      6.0      0.2736000000   -2.1335000000   -2.1519000000 
C      6.0      1.7815000000    0.2435000000    1.2586000000 
C      6.0      3.0842000000    0.5768000000    1.3572000000 
C      6.0      3.9245000000    0.6900000000    0.1874000000 
C      6.0      3.3340000000    0.5767000000   -1.0074000000 
N      7.0      1.9738000000    0.3117000000   -1.1779000000 
C      6.0      1.3585000000    0.7918000000   -2.4315000000 
N      7.0      3.6370000000    0.8191000000    2.6939000000 
O      8.0      4.8436000000    1.0955000000    2.7670000000 
O      8.0      2.8810000000    0.7390000000    3.6739000000 
N      7.0     -3.2167000000   -0.9094000000    1.9507000000 
C      6.0     -4.6612000000   -0.8803000000    1.9021000000 
H      1.0     -3.8881000000   -1.5404000000   -0.5928000000 
H      1.0     -0.6924000000   -0.3626000000    1.9732000000 
H      1.0     -2.2889000000   -1.8580000000   -2.4136000000 
H      1.0     -0.0249000000   -3.1828000000   -2.0367000000 
H      1.0      1.3305000000   -2.0832000000   -1.8764000000 
H      1.0      0.1750000000   -1.8679000000   -3.2098000000 
H      1.0      1.1907000000    0.1424000000    2.1578000000 
H      1.0      4.9819000000    0.9076000000    0.2811000000 
H      1.0      3.8912000000    0.7186000000   -1.9299000000 
H      1.0      0.2762000000    0.9304000000   -2.3556000000 
H      1.0      1.5811000000    0.1025000000   -3.2517000000 
H      1.0      1.7688000000    1.7730000000   -2.7013000000 
H      1.0     -2.8190000000   -0.4746000000    2.7788000000 
H      1.0     -5.0154000000   -0.0048000000    1.3491000000 
H      1.0     -5.0617000000   -0.8244000000    2.9191000000 
H      1.0     -5.0601000000   -1.7883000000    1.4396000000 
 $END


