 $CONTRL SCFTYP=RHF RUNTYP=HESSIAN EXETYP=RUN
 MAXIT=200 ICHARG=2 MULT=1 ISPHER=1
 COORD=CART UNITS=ANGS $END
 $BASIS GBASIS=CCD $END
 $SYSTEM TIMLIM=1300 MWORDS=100 PARALL=.TRUE. $END
 $SCF DIRSCF=.TRUE. $END 
 $STATPT HESS=READ $END

 $DATA
bpy.mol
C1
C      6.0     -0.6553000000    0.5147000000    3.2038000000 
C      6.0      0.2847000000    1.2255000000    2.3706000000 
C      6.0      0.4598000000    0.8411000000    1.0875000000 
C      6.0     -0.2541000000   -0.3246000000    0.4997000000 
N      7.0     -1.3400000000   -0.8038000000    1.3027000000 
C      6.0     -1.4249000000   -0.4253000000    2.6444000000 
C      6.0      0.1322000000   -0.8840000000   -0.6979000000 
C      6.0     -2.5984000000   -1.2483000000    0.6743000000 
C      6.0      0.9897000000   -0.1484000000   -1.6615000000 
C      6.0      1.1563000000   -0.5833000000   -2.9268000000 
C      6.0      0.5379000000   -1.8029000000   -3.3927000000 
C      6.0     -0.1039000000   -2.5512000000   -2.4887000000 
N      7.0     -0.2439000000   -2.1951000000   -1.1456000000 
C      6.0     -0.4022000000   -3.3042000000   -0.1830000000 
N      7.0      1.9825000000    0.2229000000   -3.8316000000 
O      8.0      2.1113000000   -0.1835000000   -4.9958000000 
O      8.0      2.5062000000    1.2586000000   -3.3937000000 
O      8.0      0.9099000000    2.2515000000    3.0361000000 
C      6.0      1.8534000000    3.0314000000    2.3128000000 
H      1.0     -0.7580000000    0.7931000000    4.2454000000 
H      1.0      1.1846000000    1.3684000000    0.4901000000 
H      1.0     -2.1998000000   -0.9306000000    3.2133000000 
H      1.0     -2.8873000000   -2.2303000000    1.0634000000 
H      1.0     -3.4040000000   -0.5415000000    0.9085000000 
H      1.0     -2.5478000000   -1.3036000000   -0.4165000000 
H      1.0      1.4453000000    0.7833000000   -1.3583000000 
H      1.0      0.6366000000   -2.1177000000   -4.4250000000 
H      1.0     -0.5335000000   -3.5141000000   -2.7532000000 
H      1.0     -1.4314000000   -3.6756000000   -0.1989000000 
H      1.0     -0.1304000000   -3.0311000000    0.8406000000 
H      1.0      0.2569000000   -4.1375000000   -0.4572000000 
H      1.0      1.3778000000    3.5365000000    1.4658000000 
H      1.0      2.6965000000    2.4172000000    1.9803000000 
H      1.0      2.2426000000    3.7998000000    2.9874000000 
 $END


