 $CONTRL SCFTYP=RHF RUNTYP=HESSIAN EXETYP=RUN
 MAXIT=200 ICHARG=2 MULT=1 ISPHER=1
 COORD=CART UNITS=ANGS $END
 $BASIS GBASIS=CCD $END
 $SYSTEM TIMLIM=1300 MWORDS=100 PARALL=.TRUE. $END
 $SCF DIRSCF=.TRUE. $END 
 $STATPT HESS=READ $END

 $DATA
bpy.mol
C1
C      6.0     -1.1397000000    0.5345000000   -3.3857000000 
C      6.0     -2.0102000000    0.6484000000   -2.2381000000 
C      6.0     -1.6281000000    0.2166000000   -1.0191000000 
C      6.0     -0.2780000000   -0.3607000000   -0.7938000000 
N      7.0      0.4274000000   -0.6700000000   -2.0050000000 
C      6.0      0.0096000000   -0.1298000000   -3.2231000000 
C      6.0      0.2235000000   -0.5549000000    0.4737000000 
C      6.0      1.3166000000   -1.8469000000   -2.0797000000 
C      6.0     -0.6595000000   -0.5939000000    1.6668000000 
C      6.0     -0.2367000000   -1.0489000000    2.8656000000 
C      6.0      1.1346000000   -1.4843000000    3.0266000000 
C      6.0      1.9812000000   -1.2995000000    2.0076000000 
N      7.0      1.6101000000   -0.7572000000    0.7754000000 
C      6.0      2.6536000000    0.0002000000    0.0578000000 
C      6.0     -1.2200000000   -1.0880000000    3.9747000000 
O      8.0     -0.6952000000   -1.5473000000    5.1259000000 
O      8.0     -2.3913000000   -0.7548000000    3.9177000000 
N      7.0     -3.3406000000    1.2506000000   -2.3751000000 
O      8.0     -3.6732000000    1.6387000000   -3.5049000000 
O      8.0     -4.0588000000    1.3419000000   -1.3686000000 
H      1.0     -1.4365000000    0.9300000000   -4.3501000000 
H      1.0     -2.2964000000    0.3427000000   -0.1785000000 
H      1.0      0.6794000000   -0.3151000000   -4.0590000000 
H      1.0      0.9719000000   -2.5288000000   -2.8670000000 
H      1.0      2.3355000000   -1.5357000000   -2.3307000000 
H      1.0      1.3358000000   -2.4359000000   -1.1584000000 
H      1.0     -1.6980000000   -0.3027000000    1.5781000000 
H      1.0      1.4676000000   -1.8978000000    3.9711000000 
H      1.0      3.0371000000   -1.5380000000    2.1011000000 
H      1.0      3.4008000000   -0.6858000000   -0.3545000000 
H      1.0      3.1659000000    0.6800000000    0.7500000000 
H      1.0      2.2632000000    0.6256000000   -0.7497000000 
H      1.0     -1.4506000000   -1.5124000000    5.7488000000 
 $END


