 $CONTRL SCFTYP=RHF RUNTYP=HESSIAN EXETYP=RUN
 MAXIT=200 ICHARG=2 MULT=1 ISPHER=1
 COORD=CART UNITS=ANGS $END
 $BASIS GBASIS=CCD $END
 $SYSTEM TIMLIM=1300 MWORDS=100 PARALL=.TRUE. $END
 $SCF DIRSCF=.TRUE. $END 
 $STATPT HESS=READ $END

 $DATA
bpy.mol
C1
C      6.0     -2.5572000000    0.8780000000   -2.0146000000 
C      6.0     -2.2942000000    1.4840000000   -0.7356000000 
C      6.0     -1.2756000000    1.0593000000    0.0265000000 
C      6.0     -0.3767000000   -0.0453000000   -0.3838000000 
N      7.0     -0.6056000000   -0.5262000000   -1.7170000000 
C      6.0     -1.7174000000   -0.0754000000   -2.4379000000 
C      6.0      0.4912000000   -0.5662000000    0.5457000000 
C      6.0      0.4724000000   -1.1540000000   -2.5029000000 
C      6.0      0.8677000000   -1.9966000000    0.4316000000 
C      6.0      1.5393000000   -2.6458000000    1.3962000000 
C      6.0      1.9344000000   -1.9637000000    2.5998000000 
C      6.0      1.6616000000   -0.6574000000    2.7002000000 
N      7.0      1.0125000000    0.0887000000    1.7108000000 
C      6.0      1.2225000000    1.5477000000    1.7465000000 
Cl    17.0      1.9019000000   -4.3248000000    1.2537000000 
O      8.0     -3.1459000000    2.4740000000   -0.3049000000 
H      1.0     -3.3946000000    1.1915000000   -2.6231000000 
H      1.0     -1.1893000000    1.4796000000    1.0187000000 
H      1.0     -1.8473000000   -0.5433000000   -3.4098000000 
H      1.0      1.4581000000   -1.0258000000   -2.0438000000 
H      1.0      0.2690000000   -2.2212000000   -2.6387000000 
H      1.0      0.5424000000   -0.6977000000   -3.4982000000 
H      1.0      0.5005000000   -2.5679000000   -0.4101000000 
H      1.0      2.4471000000   -2.5007000000    3.3878000000 
H      1.0      1.9646000000   -0.0891000000    3.5752000000 
H      1.0      0.4898000000    2.0200000000    2.4088000000 
H      1.0      1.1687000000    2.0046000000    0.7530000000 
H      1.0      2.2218000000    1.7859000000    2.1320000000 
H      1.0     -3.8473000000    2.5867000000   -0.9662000000 
 $END


