 $CONTRL SCFTYP=RHF RUNTYP=HESSIAN EXETYP=RUN
 MAXIT=200 ICHARG=2 MULT=1 ISPHER=1
 COORD=CART UNITS=ANGS $END
 $BASIS GBASIS=CCD $END
 $SYSTEM TIMLIM=1300 MWORDS=100 PARALL=.TRUE. $END
 $SCF DIRSCF=.TRUE. $END 
 $STATPT HESS=READ $END

 $DATA
bpy.mol
C1
C      6.0     -2.8167000000   -0.9786000000    2.2874000000 
C      6.0     -1.5529000000   -0.7894000000    2.9511000000 
C      6.0     -0.4319000000   -0.5606000000    2.2454000000 
C      6.0     -0.4425000000   -0.4532000000    0.7652000000 
N      7.0     -1.6738000000   -0.8804000000    0.1632000000 
C      6.0     -2.8180000000   -1.0369000000    0.9506000000 
C      6.0      0.6425000000    0.0341000000    0.0729000000 
C      6.0     -1.6716000000   -1.5795000000   -1.1356000000 
C      6.0      1.9925000000    0.0866000000    0.6853000000 
C      6.0      3.0978000000    0.3167000000   -0.0409000000 
C      6.0      3.0141000000    0.5610000000   -1.4581000000 
C      6.0      1.7934000000    0.6676000000   -1.9982000000 
N      7.0      0.6031000000    0.5126000000   -1.2805000000 
C      6.0     -0.5625000000    1.2682000000   -1.7752000000 
O      8.0      4.3452000000    0.3182000000    0.5382000000 
Cl    17.0     -1.5237000000   -0.8535000000    4.6740000000 
H      1.0     -3.7214000000   -1.1171000000    2.8657000000 
H      1.0      0.4824000000   -0.3945000000    2.7969000000 
H      1.0     -3.7275000000   -1.2470000000    0.3952000000 
H      1.0     -2.0814000000   -2.5905000000   -1.0190000000 
H      1.0     -2.3016000000   -1.0440000000   -1.8530000000 
H      1.0     -0.6725000000   -1.7059000000   -1.5617000000 
H      1.0      2.1373000000   -0.1211000000    1.7354000000 
H      1.0      3.9031000000    0.6985000000   -2.0584000000 
H      1.0      1.6594000000    0.9180000000   -3.0465000000 
H      1.0     -0.2617000000    2.2876000000   -2.0473000000 
H      1.0     -0.9696000000    0.7888000000   -2.6712000000 
H      1.0     -1.3600000000    1.3758000000   -1.0349000000 
H      1.0      5.0040000000    0.5173000000   -0.1462000000 
 $END


