 $CONTRL SCFTYP=RHF RUNTYP=HESSIAN EXETYP=RUN
 MAXIT=200 ICHARG=2 MULT=1 ISPHER=1
 COORD=CART UNITS=ANGS $END
 $BASIS GBASIS=CCD $END
 $SYSTEM TIMLIM=1300 MWORDS=100 PARALL=.TRUE. $END
 $SCF DIRSCF=.TRUE. $END 
 $STATPT HESS=READ $END

 $DATA
bpy.mol
C1
C      6.0     -2.6098000000   -1.6972000000   -2.0094000000 
C      6.0     -1.2310000000   -1.6751000000   -2.4504000000 
C      6.0     -0.2797000000   -1.1482000000   -1.6507000000 
C      6.0     -0.5807000000   -0.6127000000   -0.2987000000 
N      7.0     -1.9822000000   -0.4467000000   -0.0440000000 
C      6.0     -2.9189000000   -1.0758000000   -0.8660000000 
C      6.0      0.4176000000   -0.3279000000    0.6062000000 
C      6.0     -2.4719000000    0.6912000000    0.7567000000 
C      6.0      1.8293000000   -0.1459000000    0.1803000000 
C      6.0      2.7705000000    0.3875000000    0.9887000000 
C      6.0      2.4142000000    0.7689000000    2.3412000000 
C      6.0      1.1925000000    0.4627000000    2.7903000000 
N      7.0      0.2140000000   -0.1616000000    2.0155000000 
C      6.0     -0.7552000000   -1.0049000000    2.7401000000 
C      6.0      4.1650000000    0.6028000000    0.5268000000 
O      8.0      4.3911000000    0.2120000000   -0.7406000000 
O      8.0      5.0656000000    1.0858000000    1.1936000000 
C      6.0     -0.8049000000   -2.2226000000   -3.7608000000 
O      8.0     -1.8281000000   -2.7233000000   -4.4781000000 
O      8.0      0.3310000000   -2.2485000000   -4.2035000000 
H      1.0     -3.3709000000   -2.1633000000   -2.6236000000 
H      1.0      0.7438000000   -1.1744000000   -2.0007000000 
H      1.0     -3.9477000000   -0.9995000000   -0.5255000000 
H      1.0     -3.0584000000    0.3295000000    1.6073000000 
H      1.0     -1.6737000000    1.3424000000    1.1236000000 
H      1.0     -3.1247000000    1.3271000000    0.1457000000 
H      1.0      2.1121000000   -0.3966000000   -0.8322000000 
H      1.0      3.1539000000    1.2427000000    2.9771000000 
H      1.0      0.9033000000    0.6602000000    3.8187000000 
H      1.0     -1.4779000000   -0.3774000000    3.2716000000 
H      1.0     -1.2958000000   -1.7026000000    2.0946000000 
H      1.0     -0.2345000000   -1.6208000000    3.4839000000 
H      1.0      5.3383000000    0.4190000000   -0.8792000000 
H      1.0     -1.3960000000   -3.0387000000   -5.2986000000 
 $END


