 $CONTRL SCFTYP=RHF RUNTYP=HESSIAN EXETYP=RUN
 MAXIT=200 ICHARG=2 MULT=1 ISPHER=1
 COORD=CART UNITS=ANGS $END
 $BASIS GBASIS=CCD $END
 $SYSTEM TIMLIM=1300 MWORDS=100 PARALL=.TRUE. $END
 $SCF DIRSCF=.TRUE. $END 
 $STATPT HESS=READ $END

 $DATA
bpy.mol
C1
C      6.0     -1.6661000000    2.0393000000   -2.5836000000 
C      6.0     -0.9496000000    0.9038000000   -3.1042000000 
C      6.0     -0.2472000000    0.1057000000   -2.2805000000 
C      6.0     -0.2033000000    0.3236000000   -0.8120000000 
N      7.0     -0.7268000000    1.5963000000   -0.4023000000 
C      6.0     -1.5056000000    2.3448000000   -1.2907000000 
C      6.0      0.2838000000   -0.6358000000    0.0470000000 
C      6.0     -0.0997000000    2.3428000000    0.7032000000 
C      6.0      1.1454000000   -1.7447000000   -0.4348000000 
C      6.0      1.8371000000   -2.5439000000    0.4045000000 
C      6.0      1.7232000000   -2.3540000000    1.8353000000 
C      6.0      0.8329000000   -1.4636000000    2.2871000000 
N      7.0      0.0376000000   -0.6693000000    1.4594000000 
C      6.0     -1.2647000000   -0.2457000000    2.0066000000 
C      6.0      2.7012000000   -3.5888000000   -0.1948000000 
O      8.0      3.3487000000   -4.3267000000    0.7265000000 
O      8.0      2.8551000000   -3.8114000000   -1.3839000000 
H      1.0     -2.2662000000    2.6470000000   -3.2492000000 
H      1.0     -0.9918000000    0.7117000000   -4.1706000000 
H      1.0      0.2458000000   -0.7448000000   -2.7294000000 
H      1.0     -1.9594000000    3.2321000000   -0.8593000000 
H      1.0      0.7134000000    1.7998000000    1.1927000000 
H      1.0      0.3405000000    3.2740000000    0.3253000000 
H      1.0     -0.8518000000    2.6074000000    1.4535000000 
H      1.0      1.2758000000   -1.8946000000   -1.4982000000 
H      1.0      2.3127000000   -2.9586000000    2.5139000000 
H      1.0      0.6567000000   -1.3317000000    3.3509000000 
H      1.0     -1.1270000000    0.5757000000    2.7167000000 
H      1.0     -1.7351000000   -1.0777000000    2.5453000000 
H      1.0     -1.9814000000    0.0592000000    1.2389000000 
H      1.0      3.8659000000   -4.9593000000    0.1865000000 
 $END


