 $CONTRL SCFTYP=RHF RUNTYP=HESSIAN EXETYP=RUN
 MAXIT=200 ICHARG=2 MULT=1 ISPHER=1
 COORD=CART UNITS=ANGS $END
 $BASIS GBASIS=CCD $END
 $SYSTEM TIMLIM=1300 MWORDS=100 PARALL=.TRUE. $END
 $SCF DIRSCF=.TRUE. $END 
 $STATPT HESS=READ $END

 $DATA
bpy.mol
C1
C      6.0     -3.5147000000   -1.4179000000   -1.0884000000 
C      6.0     -2.6932000000   -2.3921000000   -0.4181000000 
C      6.0     -1.4651000000   -2.0704000000    0.0245000000 
C      6.0     -0.8817000000   -0.7219000000   -0.1865000000 
N      7.0     -1.8322000000    0.2540000000   -0.6397000000 
C      6.0     -3.0670000000   -0.1584000000   -1.1482000000 
C      6.0      0.4556000000   -0.4731000000    0.0256000000 
C      6.0     -1.7470000000    1.6545000000   -0.1841000000 
C      6.0      1.2953000000   -1.3813000000    0.8467000000 
C      6.0      2.5247000000   -1.0351000000    1.2838000000 
C      6.0      3.0808000000    0.2514000000    0.9208000000 
C      6.0      2.4035000000    1.0122000000    0.0537000000 
N      7.0      1.1653000000    0.6618000000   -0.4880000000 
C      6.0      0.8650000000    1.1917000000   -1.8315000000 
C      6.0      3.2513000000   -2.0056000000    2.1371000000 
O      8.0      4.4642000000   -1.5638000000    2.5189000000 
O      8.0      2.8526000000   -3.1019000000    2.4919000000 
Cl    17.0     -3.3267000000   -3.9823000000   -0.2108000000 
H      1.0     -4.4833000000   -1.6988000000   -1.4821000000 
H      1.0     -0.8837000000   -2.8515000000    0.4930000000 
H      1.0     -3.6710000000    0.6360000000   -1.5773000000 
H      1.0     -1.6823000000    2.3277000000   -1.0449000000 
H      1.0     -2.6479000000    1.9206000000    0.3828000000 
H      1.0     -0.9025000000    1.8458000000    0.4836000000 
H      1.0      0.8989000000   -2.3374000000    1.1619000000 
H      1.0      4.0455000000    0.5567000000    1.3080000000 
H      1.0      2.8090000000    1.9530000000   -0.3078000000 
H      1.0      1.7461000000    1.0963000000   -2.4783000000 
H      1.0      0.6089000000    2.2543000000   -1.7692000000 
H      1.0      0.0571000000    0.6590000000   -2.3406000000 
H      1.0      4.8120000000   -2.3000000000    3.0635000000 
 $END


