 $CONTRL SCFTYP=RHF RUNTYP=HESSIAN EXETYP=RUN
 MAXIT=200 ICHARG=2 MULT=1 ISPHER=1
 COORD=CART UNITS=ANGS $END
 $BASIS GBASIS=CCD $END
 $SYSTEM TIMLIM=1300 MWORDS=100 PARALL=.TRUE. $END
 $SCF DIRSCF=.TRUE. $END 
 $STATPT HESS=READ $END

 $DATA
bpy.mol
C1
C      6.0     -2.9077000000    1.5316000000   -1.7565000000 
C      6.0     -2.1495000000    0.6585000000   -2.6131000000 
C      6.0     -1.1592000000   -0.0986000000   -2.1136000000 
C      6.0     -0.7861000000   -0.0750000000   -0.6789000000 
N      7.0     -1.6542000000    0.7162000000    0.1449000000 
C      6.0     -2.6354000000    1.5194000000   -0.4462000000 
C      6.0      0.3758000000   -0.7000000000   -0.2945000000 
C      6.0     -1.8284000000    0.4198000000    1.5792000000 
C      6.0      1.1212000000   -0.1471000000    0.8668000000 
C      6.0      2.3638000000   -0.5514000000    1.2025000000 
C      6.0      3.0113000000   -1.5710000000    0.4144000000 
C      6.0      2.3403000000   -2.1260000000   -0.6009000000 
N      7.0      1.0343000000   -1.7830000000   -0.9619000000 
C      6.0      0.2802000000   -2.7946000000   -1.7237000000 
O      8.0      3.1587000000   -0.0789000000    2.2182000000 
C      6.0      2.6348000000    0.9629000000    3.0309000000 
Cl    17.0     -2.5111000000    0.6539000000   -4.2983000000 
H      1.0     -3.6837000000    2.1627000000   -2.1713000000 
H      1.0     -0.5480000000   -0.6642000000   -2.8039000000 
H      1.0     -3.2021000000    2.1334000000    0.2482000000 
H      1.0     -1.3874000000    1.2174000000    2.1859000000 
H      1.0     -1.3899000000   -0.5412000000    1.8673000000 
H      1.0     -2.8934000000    0.3543000000    1.8346000000 
H      1.0      0.6763000000    0.6845000000    1.3910000000 
H      1.0      4.0200000000   -1.8747000000    0.6658000000 
H      1.0      2.7869000000   -2.9176000000   -1.1959000000 
H      1.0     -0.7983000000   -2.7398000000   -1.5431000000 
H      1.0      0.4769000000   -2.6853000000   -2.7952000000 
H      1.0      0.5831000000   -3.8074000000   -1.4300000000 
H      1.0      1.7266000000    0.6381000000    3.5494000000 
H      1.0      3.3849000000    1.2084000000    3.7886000000 
H      1.0      2.4469000000    1.8648000000    2.4392000000 
 $END


