 $CONTRL SCFTYP=RHF RUNTYP=HESSIAN EXETYP=RUN
 MAXIT=200 ICHARG=2 MULT=1 ISPHER=1
 COORD=CART UNITS=ANGS $END
 $BASIS GBASIS=CCD $END
 $SYSTEM TIMLIM=1300 MWORDS=100 PARALL=.TRUE. $END
 $SCF DIRSCF=.TRUE. $END 
 $STATPT HESS=READ $END

 $DATA
bpy.mol
C1
C      6.0     -0.7531000000   -3.2687000000    1.9754000000 
C      6.0     -1.0513000000   -3.1448000000    0.5643000000 
C      6.0     -0.7870000000   -1.9872000000   -0.0777000000 
C      6.0     -0.1606000000   -0.8233000000    0.5986000000 
N      7.0     -0.1217000000   -0.9406000000    2.0275000000 
C      6.0     -0.3344000000   -2.1809000000    2.6318000000 
C      6.0      0.3376000000    0.2452000000   -0.1134000000 
C      6.0     -0.2911000000    0.2470000000    2.8857000000 
C      6.0     -0.0685000000    0.5046000000   -1.5211000000 
C      6.0      0.1894000000    1.6734000000   -2.1472000000 
C      6.0      0.9188000000    2.7065000000   -1.4517000000 
C      6.0      1.4295000000    2.4310000000   -0.2467000000 
N      7.0      1.2586000000    1.2110000000    0.4108000000 
C      6.0      2.3508000000    0.7960000000    1.3101000000 
O      8.0     -0.1667000000    2.0436000000   -3.4213000000 
C      6.0     -0.8846000000    1.0998000000   -4.2056000000 
C      6.0     -1.6358000000   -4.2530000000   -0.2282000000 
O      8.0     -1.8543000000   -5.3624000000    0.5021000000 
O      8.0     -1.9136000000   -4.2289000000   -1.4155000000 
H      1.0     -0.9163000000   -4.2099000000    2.4864000000 
H      1.0     -0.9943000000   -1.9418000000   -1.1382000000 
H      1.0     -0.1635000000   -2.2001000000    3.7044000000 
H      1.0     -1.1674000000    0.1211000000    3.5338000000 
H      1.0      0.5843000000    0.3755000000    3.5300000000 
H      1.0     -0.4626000000    1.1695000000    2.3238000000 
H      1.0     -0.6384000000   -0.2442000000   -2.0453000000 
H      1.0      1.0830000000    3.6599000000   -1.9383000000 
H      1.0      2.0483000000    3.1507000000    0.2807000000 
H      1.0      3.3202000000    0.9584000000    0.8228000000 
H      1.0      2.3317000000    1.3940000000    2.2271000000 
H      1.0      2.3193000000   -0.2637000000    1.5776000000 
H      1.0     -1.8513000000    0.8648000000   -3.7484000000 
H      1.0     -1.0764000000    1.5513000000   -5.1835000000 
H      1.0     -0.2943000000    0.1914000000   -4.3645000000 
H      1.0     -2.2342000000   -5.9906000000   -0.1463000000 
 $END


