 $CONTRL SCFTYP=RHF RUNTYP=HESSIAN EXETYP=RUN
 MAXIT=200 ICHARG=2 MULT=1 ISPHER=1
 COORD=CART UNITS=ANGS $END
 $BASIS GBASIS=CCD $END
 $SYSTEM TIMLIM=1300 MWORDS=100 PARALL=.TRUE. $END
 $SCF DIRSCF=.TRUE. $END 
 $STATPT HESS=READ $END

 $DATA
bpy.mol
C1
C      6.0     -2.4796000000    1.7057000000    1.1723000000 
C      6.0     -2.5144000000    1.0061000000   -0.0885000000 
C      6.0     -1.4427000000    0.2816000000   -0.4718000000 
C      6.0     -0.2143000000    0.1573000000    0.3550000000 
N      7.0     -0.2043000000    0.9714000000    1.5335000000 
C      6.0     -1.3613000000    1.6621000000    1.9051000000 
C      6.0      0.7244000000   -0.7784000000   -0.0069000000 
C      6.0      1.0581000000    1.4494000000    2.1261000000 
C      6.0      1.5253000000   -1.4206000000    1.0661000000 
C      6.0      2.3063000000   -2.4937000000    0.8405000000 
C      6.0      2.4030000000   -3.0571000000   -0.4846000000 
C      6.0      1.7417000000   -2.4540000000   -1.4787000000 
N      7.0      0.9538000000   -1.3099000000   -1.3176000000 
C      6.0      0.7330000000   -0.4936000000   -2.5259000000 
C      6.0      3.0211000000   -3.1131000000    1.9857000000 
O      8.0      3.7713000000   -4.0758000000    1.8680000000 
O      8.0     -3.7125000000    1.1506000000   -0.7442000000 
C      6.0     -3.8714000000    0.4664000000   -1.9801000000 
H      1.0     -3.3510000000    2.2634000000    1.4930000000 
H      1.0     -1.5041000000   -0.3222000000   -1.3641000000 
H      1.0     -1.2887000000    2.2065000000    2.8424000000 
H      1.0      1.0305000000    2.5362000000    2.2738000000 
H      1.0      1.9251000000    1.2535000000    1.4868000000 
H      1.0      1.2163000000    0.9818000000    3.1035000000 
H      1.0      1.3867000000   -1.0698000000    2.0808000000 
H      1.0      3.0135000000   -3.9378000000   -0.6504000000 
H      1.0      1.8116000000   -2.8223000000   -2.4987000000 
H      1.0      0.5754000000    0.5652000000   -2.2960000000 
H      1.0      1.6091000000   -0.5321000000   -3.1851000000 
H      1.0     -0.1256000000   -0.8755000000   -3.0879000000 
H      1.0      2.8399000000   -2.6496000000    2.9700000000 
H      1.0     -3.8096000000   -0.6176000000   -1.8386000000 
H      1.0     -3.1361000000    0.8082000000   -2.7159000000 
H      1.0     -4.8679000000    0.6984000000   -2.3677000000 
 $END


