 $CONTRL SCFTYP=RHF RUNTYP=HESSIAN EXETYP=RUN
 MAXIT=200 ICHARG=2 MULT=1 ISPHER=1
 COORD=CART UNITS=ANGS $END
 $BASIS GBASIS=CCD $END
 $SYSTEM TIMLIM=1300 MWORDS=100 PARALL=.TRUE. $END
 $SCF DIRSCF=.TRUE. $END 
 $STATPT HESS=READ $END

 $DATA
bpy.mol
C1
C      6.0     -2.1869000000   -0.8120000000    2.3918000000 
C      6.0     -2.4916000000    0.0143000000    1.2413000000 
C      6.0     -1.5068000000    0.3035000000    0.3675000000 
C      6.0     -0.1286000000   -0.2281000000    0.5021000000 
N      7.0      0.1589000000   -0.6718000000    1.8344000000 
C      6.0     -0.9000000000   -1.0738000000    2.6553000000 
C      6.0      0.7153000000   -0.2224000000   -0.5855000000 
C      6.0      1.4533000000   -0.4361000000    2.4876000000 
C      6.0      2.0977000000   -0.7348000000   -0.4566000000 
C      6.0      3.0589000000   -0.4269000000   -1.3403000000 
C      6.0      2.7579000000    0.3835000000   -2.4944000000 
C      6.0      1.4654000000    0.6293000000   -2.7506000000 
N      7.0      0.4161000000    0.2167000000   -1.9201000000 
C      6.0     -0.8681000000   -0.0799000000   -2.5718000000 
O      8.0      4.3419000000   -0.9006000000   -1.2019000000 
C      6.0     -3.8879000000    0.5379000000    1.1165000000 
H      1.0     -2.9790000000   -1.1360000000    3.0557000000 
H      1.0     -1.7106000000    0.9816000000   -0.4501000000 
H      1.0     -0.6024000000   -1.6062000000    3.5536000000 
H      1.0      2.0335000000    0.3477000000    1.9901000000 
H      1.0      1.3085000000   -0.0912000000    3.5192000000 
H      1.0      2.0355000000   -1.3620000000    2.5312000000 
H      1.0      2.3407000000   -1.4047000000    0.3548000000 
H      1.0      3.5366000000    0.7219000000   -3.1639000000 
H      1.0      1.1528000000    1.1537000000   -3.6485000000 
H      1.0     -1.4320000000   -0.8581000000   -2.0474000000 
H      1.0     -0.7065000000   -0.4594000000   -3.5886000000 
H      1.0     -1.4749000000    0.8277000000   -2.6521000000 
H      1.0      4.8519000000   -0.6366000000   -1.9843000000 
H      1.0     -4.6023000000   -0.2884000000    1.0355000000 
H      1.0     -4.0088000000    1.1680000000    0.2288000000 
H      1.0     -4.1533000000    1.1419000000    1.9907000000 
 $END


