 $CONTRL SCFTYP=RHF RUNTYP=HESSIAN EXETYP=RUN
 MAXIT=200 ICHARG=2 MULT=1 ISPHER=1
 COORD=CART UNITS=ANGS $END
 $BASIS GBASIS=CCD $END
 $SYSTEM TIMLIM=1300 MWORDS=100 PARALL=.TRUE. $END
 $SCF DIRSCF=.TRUE. $END 
 $STATPT HESS=READ $END

 $DATA
bpy.mol
C1
C      6.0     -0.1477000000    2.9457000000    0.8025000000 
C      6.0      0.5096000000    1.9152000000    1.5727000000 
C      6.0      0.3747000000    0.6228000000    1.2207000000 
C      6.0     -0.3972000000    0.2072000000    0.0233000000 
N      7.0     -1.3072000000    1.2201000000   -0.4241000000 
C      6.0     -1.0411000000    2.5595000000   -0.1165000000 
C      6.0     -0.2062000000   -1.0522000000   -0.4971000000 
C      6.0     -2.6505000000    0.9133000000   -0.9348000000 
C      6.0     -0.9799000000   -1.5065000000   -1.6743000000 
C      6.0     -1.1248000000   -2.8082000000   -1.9773000000 
C      6.0     -0.4685000000   -3.8103000000   -1.1739000000 
C      6.0      0.4458000000   -3.3951000000   -0.2873000000 
N      7.0      0.7205000000   -2.0454000000   -0.0327000000 
C      6.0      2.1115000000   -1.7113000000    0.3096000000 
C      6.0      1.3061000000    2.2518000000    2.7791000000 
O      8.0      1.5013000000    3.4020000000    3.1564000000 
H      1.0      0.0313000000    3.9897000000    1.0333000000 
H      1.0      0.8071000000   -0.1579000000    1.8329000000 
H      1.0     -1.6384000000    3.2833000000   -0.6638000000 
H      1.0     -2.6758000000    1.0020000000   -2.0255000000 
H      1.0     -2.9918000000   -0.0816000000   -0.6312000000 
H      1.0     -3.3888000000    1.6179000000   -0.5316000000 
H      1.0     -1.4124000000   -0.7684000000   -2.3347000000 
H      1.0     -1.6856000000   -3.1268000000   -2.8485000000 
H      1.0     -0.6545000000   -4.8600000000   -1.3634000000 
H      1.0      1.0551000000   -4.0972000000    0.2740000000 
H      1.0      2.3851000000   -0.6964000000    0.0031000000 
H      1.0      2.8089000000   -2.3827000000   -0.2068000000 
H      1.0      2.2758000000   -1.8248000000    1.3861000000 
H      1.0      1.7253000000    1.3931000000    3.3299000000 
 $END


