!   File created by the GAMESS Input Deck Generator Plugin for Avogadro
 $BASIS GBASIS=CCD $END
 $CONTRL SCFTYP=RHF RUNTYP=HESSIAN EXETYP=RUN DFTTYP=B3LYP
MAXIT=200 ICHARG=0 MULT=1 ISPHER=1 $END
 $SYSTEM TIMLIM=1300 MWORDS=100 PARALL=.TRUE. $END
 $SCF DIRSCF=.TRUE. $END
 $STATPT HESS=READ $END

 $DATA
Title
C1
N      7.0     -1.5833000000    2.4063000000   -1.1537000000 
C      6.0     -2.5197000000    3.3719000000   -1.5244000000 
C      6.0     -2.4634000000    4.6535000000   -1.1335000000 
C      6.0     -1.3738000000    5.0791000000   -0.2726000000 
C      6.0     -0.4571000000    4.1777000000    0.1295000000 
C      6.0     -0.5330000000    2.7718000000   -0.2810000000 
C      6.0      0.4751000000    1.7916000000    0.1384000000 
C      6.0      1.6540000000    1.7755000000   -0.5254000000 
C      6.0      2.6681000000    0.8091000000   -0.1298000000 
C      6.0      2.4204000000   -0.0928000000    0.9815000000 
C      6.0      1.2278000000   -0.0031000000    1.5900000000 
N      7.0      0.2193000000    0.8920000000    1.2072000000 
C      6.0     -1.7699000000    1.0196000000   -1.6004000000 
C      6.0     -0.9936000000    0.9875000000    2.0291000000 
C      6.0      3.9101000000    0.7585000000   -0.8224000000 
N      7.0      4.9246000000    0.7123000000   -1.3834000000 
C      6.0     -1.2883000000    6.4451000000    0.1226000000 
N      7.0     -1.2198000000    7.5598000000    0.4374000000 
H      1.0     -3.3167000000    3.0207000000   -2.1732000000 
H      1.0     -3.2107000000    5.3716000000   -1.4554000000 
H      1.0      0.3718000000    4.4565000000    0.7739000000 
H      1.0      1.8595000000    2.4484000000   -1.3519000000 
H      1.0      3.1847000000   -0.7891000000    1.3062000000 
H      1.0      0.9811000000   -0.6368000000    2.4384000000 
H      1.0     -2.3643000000    0.4660000000   -0.8661000000 
H      1.0     -0.8206000000    0.4980000000   -1.7582000000 
H      1.0     -2.3046000000    0.9835000000   -2.5576000000 
H      1.0     -1.8597000000    1.3532000000    1.4702000000 
H      1.0     -0.8217000000    1.6562000000    2.8795000000 
H      1.0     -1.2746000000    0.0025000000    2.4200000000 
 $END