!   File created by the GAMESS Input Deck Generator Plugin for Avogadro
 $BASIS GBASIS=CCD $END
 $CONTRL SCFTYP=RHF RUNTYP=HESSIAN EXETYP=RUN DFTTYP=B3LYP
MAXIT=200 ICHARG=0 MULT=1 ISPHER=1 $END
 $SYSTEM TIMLIM=1300 MWORDS=100 PARALL=.TRUE. $END
 $SCF DIRSCF=.TRUE. $END
 $STATPT HESS=READ $END

 $DATA
Title
C1
N      7.0     -1.9755000000    2.0249000000    1.1036000000 
C      6.0     -2.5988000000    1.5799000000    2.2702000000 
C      6.0     -2.0593000000    0.6783000000    3.1046000000 
C      6.0     -0.7485000000    0.1322000000    2.7979000000 
C      6.0     -0.0961000000    0.5521000000    1.6978000000 
C      6.0     -0.6876000000    1.5363000000    0.7868000000 
C      6.0      0.0181000000    1.9967000000   -0.4147000000 
C      6.0      0.8917000000    3.0240000000   -0.2980000000 
C      6.0      1.5943000000    3.4804000000   -1.4874000000 
C      6.0      1.3364000000    2.8573000000   -2.7714000000 
C      6.0      0.4624000000    1.8379000000   -2.7950000000 
N      7.0     -0.2130000000    1.3612000000   -1.6638000000 
C      6.0     -2.5912000000    3.1022000000    0.3158000000 
C      6.0     -1.1139000000    0.2088000000   -1.7729000000 
C      6.0      2.5459000000    4.6238000000   -1.3877000000 
C      6.0     -0.1743000000   -0.8403000000    3.6657000000 
N      7.0      0.2895000000   -1.6351000000    4.3726000000 
H      1.0     -3.5730000000    2.0178000000    2.4720000000 
H      1.0     -2.5772000000    0.3636000000    4.0040000000 
H      1.0      0.8837000000    0.1666000000    1.4357000000 
H      1.0      1.0750000000    3.5196000000    0.6491000000 
H      1.0      1.8365000000    3.2060000000   -3.6657000000 
H      1.0      0.2272000000    1.3221000000   -3.7198000000 
H      1.0     -2.5170000000    2.9111000000   -0.7586000000 
H      1.0     -3.6591000000    3.2053000000    0.5425000000 
H      1.0     -2.1077000000    4.0572000000    0.5448000000 
H      1.0     -1.1482000000   -0.1896000000   -2.7938000000 
H      1.0     -0.7777000000   -0.6087000000   -1.1250000000 
H      1.0     -2.1365000000    0.4879000000   -1.4969000000 
H      1.0      3.1347000000    4.5671000000   -0.4669000000 
H      1.0      3.2501000000    4.6371000000   -2.2261000000 
H      1.0      2.0001000000    5.5733000000   -1.3882000000 
 $END