!   File created by the GAMESS Input Deck Generator Plugin for Avogadro
 $BASIS GBASIS=CCD $END
 $CONTRL SCFTYP=RHF RUNTYP=HESSIAN EXETYP=RUN DFTTYP=B3LYP
MAXIT=200 ICHARG=0 MULT=1 ISPHER=1 $END
 $SYSTEM TIMLIM=1300 MWORDS=100 PARALL=.TRUE. $END
 $SCF DIRSCF=.TRUE. $END
 $STATPT HESS=READ $END

 $DATA
Title
C1
N      7.0     -0.7190000000    4.0961000000    1.3362000000 
C      6.0     -1.6712000000    5.0182000000    1.7801000000 
C      6.0     -2.9925000000    4.7852000000    1.7673000000 
C      6.0     -3.4660000000    3.5150000000    1.2659000000 
C      6.0     -2.5965000000    2.5844000000    0.8385000000 
C      6.0     -1.1510000000    2.8355000000    0.8617000000 
C      6.0     -0.1876000000    1.8304000000    0.3981000000 
C      6.0      0.0596000000    1.7492000000   -0.9291000000 
C      6.0      0.9873000000    0.7395000000   -1.4111000000 
C      6.0      1.5732000000   -0.2071000000   -0.4796000000 
C      6.0      1.2757000000   -0.0595000000    0.8219000000 
N      7.0      0.4321000000    0.9443000000    1.3202000000 
C      6.0      0.7051000000    4.4543000000    1.3391000000 
C      6.0      0.0747000000    0.9593000000    2.7436000000 
N      7.0      1.2433000000    0.6936000000   -2.8696000000 
C      6.0      0.4685000000   -0.3746000000   -3.5035000000 
C      6.0      2.6603000000    0.5695000000   -3.1999000000 
Cl    17.0     -5.1633000000    3.2203000000    1.2461000000 
H      1.0     -1.2735000000    5.9608000000    2.1446000000 
H      1.0     -3.7044000000    5.5197000000    2.1194000000 
H      1.0     -2.9317000000    1.6205000000    0.4676000000 
H      1.0     -0.4092000000    2.4100000000   -1.6476000000 
H      1.0      2.2142000000   -1.0066000000   -0.8237000000 
H      1.0      1.6760000000   -0.7374000000    1.5676000000 
H      1.0      0.8609000000    5.4951000000    1.6443000000 
H      1.0      1.1424000000    4.3468000000    0.3395000000 
H      1.0      1.2610000000    3.8218000000    2.0412000000 
H      1.0      0.1128000000    1.9720000000    3.1584000000 
H      1.0     -0.9333000000    0.5549000000    2.8862000000 
H      1.0      0.7664000000    0.3528000000    3.3377000000 
H      1.0      0.7505000000   -1.3712000000   -3.1445000000 
H      1.0     -0.6045000000   -0.2342000000   -3.3263000000 
H      1.0      0.6083000000   -0.3518000000   -4.5922000000 
H      1.0      3.2498000000    1.3430000000   -2.6962000000 
H      1.0      3.0805000000   -0.4097000000   -2.9389000000 
H      1.0      2.8066000000    0.7191000000   -4.2747000000 
 $END