!   File created by the GAMESS Input Deck Generator Plugin for Avogadro
 $BASIS GBASIS=CCD $END
 $CONTRL MAXIT=200 NPRINT=-5 SCFTYP=RHF DFTTYP=B3LYP RUNTYP=ENERGY
 ISPHER=1 ICHARG=0 MULT=1 $END
 $SYSTEM MWORDS=100 TIMLIM=648 PARALL=.TRUE. $END
 $DFT NRAD=96 NLEB=302 $END
 $STATPT  NSTEP=300 $END 

 $DATA 
hf-ccd-cation-nosub-twisted43-geomfromHFcalculationresult-3,or4,5,6input
C1
C           6.0   0.0010369353  -0.0005597587  -0.0018306912
C           6.0  -0.2584213105   1.3220828171   0.3993034026
C           6.0   0.7836980930   2.2496093132   0.3937499782
C           6.0   2.0511112995   1.8306095931  -0.0129154946
C           6.0   2.2103135053   0.4923963881  -0.3896119877
N           7.0   1.2238945666  -0.4089962964  -0.3869731026
H           1.0   3.1905108748   0.1251309737  -0.7145786455
H           1.0   2.8995513110   2.5179173713  -0.0343904794
H           1.0   0.6088288763   3.2807722372   0.7106871840
H           1.0  -1.2551978186   1.6132025394   0.7357629662
C           6.0  -1.0842916366  -1.0304759436  -0.0084699539
C           6.0  -2.4064695781  -0.6875549921  -0.3432952144
C           6.0  -3.3867569185  -1.6802969824  -0.3384868231
C           6.0  -3.0193503559  -2.9829722761   0.0008301952
C           6.0  -1.6771964809  -3.2257085084   0.3137904652
N           7.0  -0.7259046560  -2.2873526135   0.3113420643
H           1.0  -1.3495647502  -4.2361231279   0.5838461675
H           1.0  -3.7492410763  -3.7951514858   0.0191839908
H           1.0  -4.4192113829  -1.4401435072  -0.6045046964
 $END


