 $CONTRL SCFTYP=RHF RUNTYP=HESSIAN EXETYP=RUN
 MAXIT=200 ICHARG=0 MULT=1 ISPHER=1
 COORD=CART UNITS=ANGS $END
 $BASIS GBASIS=CCD $END
 $SYSTEM TIMLIM=1300 MWORDS=100 PARALL=.TRUE. $END
 $SCF DIRSCF=.TRUE. $END 
 $STATPT HESS=READ $END

 $DATA
bpy.mol
C1
C      6.0      2.5167000000   -2.8300000000   -0.0908000000 
C      6.0      2.2573000000   -2.1074000000    1.1308000000 
C      6.0      1.2441000000   -1.2231000000    1.1939000000 
C      6.0      0.3630000000   -0.9351000000    0.0332000000 
N      7.0      0.6004000000   -1.7647000000   -1.1107000000 
C      6.0      1.6967000000   -2.6327000000   -1.1290000000 
C      6.0     -0.4930000000    0.1362000000    0.1206000000 
C      6.0     -0.4581000000   -2.0267000000   -2.1030000000 
C      6.0     -0.8353000000    0.8746000000   -1.1205000000 
C      6.0     -1.4768000000    2.0599000000   -1.1210000000 
C      6.0     -1.8698000000    2.6511000000    0.1397000000 
C      6.0     -1.6351000000    1.9710000000    1.2681000000 
N      7.0     -1.0220000000    0.7156000000    1.3198000000 
C      6.0     -1.3333000000   -0.1135000000    2.4978000000 
C      6.0     -1.7715000000    2.8371000000   -2.3666000000 
C      6.0      3.1286000000   -2.2836000000    2.3205000000 
O      8.0      4.0572000000   -3.0835000000    2.3611000000 
H      1.0      3.3518000000   -3.5198000000   -0.1399000000 
H      1.0      1.1225000000   -0.6184000000    2.0835000000 
H      1.0      1.8340000000   -3.1776000000   -2.0591000000 
H      1.0     -1.4472000000   -1.7095000000   -1.7571000000 
H      1.0     -0.5412000000   -3.1017000000   -2.3065000000 
H      1.0     -0.2233000000   -1.5257000000   -3.0477000000 
H      1.0     -0.4609000000    0.4980000000   -2.0634000000 
H      1.0     -2.3591000000    3.6179000000    0.1555000000 
H      1.0     -1.9487000000    2.3644000000    2.2310000000 
H      1.0     -2.3628000000    0.0616000000    2.8342000000 
H      1.0     -1.2616000000   -1.1861000000    2.2904000000 
H      1.0     -0.6621000000    0.1401000000    3.3250000000 
H      1.0     -2.8500000000    2.9934000000   -2.4756000000 
H      1.0     -1.2800000000    3.8154000000   -2.3366000000 
H      1.0     -1.4205000000    2.3174000000   -3.2647000000 
H      1.0      2.8899000000   -1.6447000000    3.1872000000 
 $END


