!   File created by the GAMESS Input Deck Generator Plugin for Avogadro
 $BASIS GBASIS=CCD $END
 $CONTRL SCFTYP=RHF RUNTYP=HESSIAN EXETYP=RUN DFTTYP=B3LYP
MAXIT=200 ICHARG=0 MULT=1 ISPHER=1 $END
 $SYSTEM TIMLIM=1300 MWORDS=100 PARALL=.TRUE. $END
 $SCF DIRSCF=.TRUE. $END
 $STATPT HESS=READ $END

 $DATA
Title
C1
N      7.0     -0.9824000000    1.7131000000   -1.5214000000 
C      6.0     -1.9533000000    2.4476000000   -2.2025000000 
C      6.0     -2.4667000000    3.6036000000   -1.7538000000 
C      6.0     -1.9919000000    4.1487000000   -0.4925000000 
C      6.0     -1.0484000000    3.4772000000    0.1943000000 
C      6.0     -0.4951000000    2.2094000000   -0.2923000000 
C      6.0      0.5635000000    1.5011000000    0.4354000000 
C      6.0      1.9785000000    1.8378000000    0.2580000000 
C      6.0      2.9413000000    1.1788000000    0.9244000000 
C      6.0      2.5848000000    0.1244000000    1.8483000000 
C      6.0      1.2875000000   -0.1715000000    2.0258000000 
N      7.0      0.2467000000    0.4842000000    1.3632000000 
C      6.0     -0.4031000000    0.5125000000   -2.1319000000 
C      6.0     -1.1480000000    0.1266000000    1.6428000000 
C      6.0     -2.5755000000    5.4481000000   -0.0360000000 
H      1.0     -2.2780000000    2.0236000000   -3.1474000000 
H      1.0     -3.2191000000    4.1400000000   -2.3204000000 
H      1.0     -0.6606000000    3.8481000000    1.1378000000 
H      1.0      2.2215000000    2.6365000000   -0.4350000000 
H      1.0      3.9884000000    1.4267000000    0.7959000000 
H      1.0      3.3670000000   -0.3995000000    2.3828000000 
H      1.0      0.9805000000   -0.9510000000    2.7158000000 
H      1.0      0.6366000000    0.6967000000   -2.4242000000 
H      1.0     -0.9494000000    0.2098000000   -3.0322000000 
H      1.0     -0.4351000000   -0.3369000000   -1.4428000000 
H      1.0     -1.7254000000    1.0089000000    1.9394000000 
H      1.0     -1.6152000000   -0.3283000000    0.7634000000 
H      1.0     -1.2253000000   -0.5913000000    2.4665000000 
H      1.0     -2.4283000000    6.2238000000   -0.7962000000 
H      1.0     -3.6499000000    5.3437000000    0.1500000000 
H      1.0     -2.1078000000    5.8051000000    0.8892000000 
 $END