!   File created by the GAMESS Input Deck Generator Plugin for Avogadro
 $BASIS GBASIS=CCD $END
 $CONTRL SCFTYP=RHF RUNTYP=HESSIAN EXETYP=RUN DFTTYP=B3LYP
MAXIT=200 ICHARG=0 MULT=1 ISPHER=1 $END
 $SYSTEM TIMLIM=1300 MWORDS=100 PARALL=.TRUE. $END
 $SCF DIRSCF=.TRUE. $END
 $STATPT HESS=READ $END

 $DATA
Title
C1
N      7.0     -2.2457000000    2.8468000000    0.6968000000 
C      6.0     -3.6333000000    2.8497000000    0.5094000000 
C      6.0     -4.2706000000    1.9843000000   -0.2820000000 
C      6.0     -3.4963000000    0.9592000000   -0.9546000000 
C      6.0     -2.1523000000    0.9708000000   -0.8807000000 
C      6.0     -1.4464000000    1.9957000000   -0.1099000000 
C      6.0      0.0170000000    2.1650000000   -0.1514000000 
C      6.0      0.8093000000    1.1622000000    0.2927000000 
C      6.0      2.2557000000    1.3500000000    0.2810000000 
C      6.0      2.8047000000    2.6675000000    0.0304000000 
C      6.0      1.9574000000    3.6006000000   -0.4082000000 
N      7.0      0.5872000000    3.3794000000   -0.6053000000 
C      6.0     -1.6575000000    3.6483000000    1.7709000000 
C      6.0     -0.2103000000    4.3793000000   -1.3240000000 
N      7.0      3.2178000000    0.2226000000    0.3140000000 
C      6.0      2.9592000000   -0.7295000000    1.3832000000 
C      6.0      3.2455000000   -0.4492000000   -0.9935000000 
H      1.0     -4.1699000000    3.6138000000    1.0822000000 
H      1.0     -5.3461000000    2.0054000000   -0.4147000000 
H      1.0     -4.0225000000    0.1926000000   -1.5018000000 
H      1.0     -1.5592000000    0.2152000000   -1.3688000000 
H      1.0      0.3945000000    0.2298000000    0.6636000000 
H      1.0      3.8595000000    2.8542000000    0.2058000000 
H      1.0      2.2932000000    4.6044000000   -0.6132000000 
H      1.0     -0.7797000000    3.1381000000    2.2035000000 
H      1.0     -1.3849000000    4.6255000000    1.4269000000 
H      1.0     -2.3661000000    3.7594000000    2.6062000000 
H      1.0     -1.0799000000    3.9315000000   -1.8233000000 
H      1.0      0.3955000000    4.8687000000   -2.0875000000 
H      1.0     -0.5573000000    5.1489000000   -0.6347000000 
H      1.0      2.7947000000   -0.1983000000    2.3330000000 
H      1.0      2.0901000000   -1.3675000000    1.1953000000 
H      1.0      3.8359000000   -1.3743000000    1.5392000000 
H      1.0      2.3074000000   -0.9738000000   -1.2090000000 
H      1.0      3.4207000000    0.2704000000   -1.7984000000 
H      1.0      4.0764000000   -1.1746000000   -1.0424000000 
 $END