!   File created by the GAMESS Input Deck Generator Plugin for Avogadro
 $BASIS GBASIS=CCD $END
 $CONTRL SCFTYP=RHF RUNTYP=HESSIAN EXETYP=RUN DFTTYP=B3LYP
MAXIT=200 ICHARG=0 MULT=1 ISPHER=1 $END
 $SYSTEM TIMLIM=1300 MWORDS=100 PARALL=.TRUE. $END
 $SCF DIRSCF=.TRUE. $END
 $STATPT HESS=READ $END

 $DATA
Title
C1
N      7.0      0.9620000000    2.6652000000   -1.2678000000 
C      6.0      0.2273000000    3.3932000000   -2.1965000000 
C      6.0     -1.1134000000    3.3911000000   -2.2607000000 
C      6.0     -1.9052000000    2.5997000000   -1.3177000000 
C      6.0     -1.2064000000    1.8783000000   -0.4118000000 
C      6.0      0.2592000000    1.8843000000   -0.3295000000 
C      6.0      0.9802000000    1.1001000000    0.6793000000 
C      6.0      1.3378000000   -0.1661000000    0.3651000000 
C      6.0      2.0541000000   -0.9471000000    1.3631000000 
C      6.0      2.3168000000   -0.3969000000    2.6850000000 
C      6.0      1.9158000000    0.8645000000    2.9096000000 
N      7.0      1.2761000000    1.6596000000    1.9511000000 
C      6.0      2.4196000000    2.8087000000   -1.2137000000 
C      6.0      0.7814000000    2.9905000000    2.3314000000 
N      7.0      2.4960000000   -2.3047000000    1.0435000000 
O      8.0      2.3400000000   -2.7048000000   -0.1185000000 
O      8.0      3.0005000000   -2.9746000000    1.9564000000 
N      7.0     -3.3083000000    2.6256000000   -1.4002000000 
C      6.0     -4.0380000000    3.6089000000   -2.2057000000 
C      6.0     -4.1524000000    1.7685000000   -0.5646000000 
H      1.0      0.8138000000    3.9789000000   -2.8962000000 
H      1.0     -1.6062000000    3.9796000000   -3.0232000000 
H      1.0     -1.7077000000    1.2603000000    0.3239000000 
H      1.0      1.1079000000   -0.5985000000   -0.6022000000 
H      1.0      2.8065000000   -0.9884000000    3.4486000000 
H      1.0      2.0688000000    1.3411000000    3.8741000000 
H      1.0      2.8182000000    3.2657000000   -2.1275000000 
H      1.0      2.7031000000    3.4501000000   -0.3718000000 
H      1.0      2.9170000000    1.8395000000   -1.1024000000 
H      1.0      1.3762000000    3.4203000000    3.1473000000 
H      1.0     -0.2592000000    2.9210000000    2.6666000000 
H      1.0      0.8377000000    3.7045000000    1.5010000000 
H      1.0     -5.1182000000    3.5808000000   -2.0231000000 
H      1.0     -3.7059000000    4.6229000000   -1.9622000000 
H      1.0     -3.8822000000    3.4170000000   -3.2720000000 
H      1.0     -4.1117000000    2.0952000000    0.4797000000 
H      1.0     -5.2019000000    1.7823000000   -0.8785000000 
H      1.0     -3.8237000000    0.7252000000   -0.6265000000 
 $END