!   File created by the GAMESS Input Deck Generator Plugin for Avogadro
 $BASIS GBASIS=CCD $END
 $CONTRL SCFTYP=RHF RUNTYP=HESSIAN EXETYP=RUN DFTTYP=B3LYP
MAXIT=200 ICHARG=0 MULT=1 ISPHER=1 $END
 $SYSTEM TIMLIM=1300 MWORDS=100 PARALL=.TRUE. $END
 $SCF DIRSCF=.TRUE. $END
 $STATPT HESS=READ $END

 $DATA
Title
C1
N      7.0     -1.8717000000    2.3061000000    0.2772000000 
C      6.0     -2.9820000000    1.8622000000   -0.4424000000 
C      6.0     -2.9033000000    1.2410000000   -1.6296000000 
C      6.0     -1.5974000000    1.0172000000   -2.2278000000 
C      6.0     -0.4986000000    1.4408000000   -1.5739000000 
C      6.0     -0.5858000000    2.1084000000   -0.2712000000 
C      6.0      0.6102000000    2.5817000000    0.4331000000 
C      6.0      1.2155000000    3.8820000000    0.1367000000 
C      6.0      2.3112000000    4.2978000000    0.7914000000 
C      6.0      2.9206000000    3.4618000000    1.8021000000 
C      6.0      2.3748000000    2.2626000000    2.0588000000 
N      7.0      1.2416000000    1.7737000000    1.4060000000 
C      6.0     -2.0579000000    3.0663000000    1.5178000000 
C      6.0      0.7356000000    0.4299000000    1.7122000000 
Cl    17.0      3.0231000000    5.8293000000    0.4557000000 
C      6.0     -1.5510000000    0.3255000000   -3.5541000000 
H      1.0     -3.9436000000    2.0546000000    0.0231000000 
H      1.0     -3.7954000000    0.9139000000   -2.1515000000 
H      1.0      0.4954000000    1.2950000000   -1.9846000000 
H      1.0      0.7407000000    4.4921000000   -0.6241000000 
H      1.0      3.8015000000    3.8079000000    2.3288000000 
H      1.0      2.8035000000    1.6007000000    2.8051000000 
H      1.0     -1.8064000000    4.1210000000    1.3599000000 
H      1.0     -3.0956000000    3.0219000000    1.8690000000 
H      1.0     -1.4354000000    2.6679000000    2.3257000000 
H      1.0     -0.2709000000    0.4819000000    2.1398000000 
H      1.0      0.7095000000   -0.1896000000    0.8090000000 
H      1.0      1.3726000000   -0.0893000000    2.4378000000 
H      1.0     -1.9707000000   -0.6836000000   -3.4765000000 
H      1.0     -2.1251000000    0.8838000000   -4.3017000000 
H      1.0     -0.5254000000    0.2303000000   -3.9272000000 
 $END