!   File created by the GAMESS Input Deck Generator Plugin for Avogadro
 $BASIS GBASIS=CCD $END
 $CONTRL SCFTYP=RHF RUNTYP=HESSIAN EXETYP=RUN DFTTYP=B3LYP
MAXIT=200 ICHARG=0 MULT=1 ISPHER=1 $END
 $SYSTEM TIMLIM=1300 MWORDS=100 PARALL=.TRUE. $END
 $SCF DIRSCF=.TRUE. $END
 $STATPT HESS=READ $END

 $DATA
Title
C1
N      7.0     -1.5427000000    1.3520000000    1.1387000000 
C      6.0     -2.9124000000    1.6158000000    1.1531000000 
C      6.0     -3.6154000000    1.9760000000    0.0698000000 
C      6.0     -2.9694000000    2.0311000000   -1.2489000000 
C      6.0     -1.6390000000    1.7709000000   -1.2776000000 
C      6.0     -0.8365000000    1.5715000000   -0.0612000000 
C      6.0      0.6243000000    1.8480000000   -0.0825000000 
C      6.0      1.5239000000    0.8477000000    0.1195000000 
C      6.0      2.9405000000    1.1631000000    0.0607000000 
C      6.0      3.3701000000    2.4479000000   -0.4559000000 
C      6.0      2.4169000000    3.3742000000   -0.6809000000 
N      7.0      1.0639000000    3.1742000000   -0.3922000000 
C      6.0     -0.9452000000    0.6937000000    2.3028000000 
C      6.0      0.1249000000    4.3183000000   -0.5311000000 
C      6.0      3.8793000000    0.2511000000    0.5613000000 
N      7.0      4.6482000000   -0.4628000000    1.0133000000 
N      7.0     -3.7413000000    2.2991000000   -2.3899000000 
O      8.0     -2.9591000000    2.8347000000   -3.4661000000 
O      8.0     -4.9440000000    3.0252000000   -2.1050000000 
H      1.0     -3.3876000000    1.5451000000    2.1353000000 
H      1.0     -4.6688000000    2.2237000000    0.1706000000 
H      1.0     -1.0905000000    1.7394000000   -2.2159000000 
H      1.0      1.2135000000   -0.1700000000    0.3111000000 
H      1.0      4.4019000000    2.6451000000   -0.6749000000 
H      1.0      2.6699000000    4.3434000000   -1.1141000000 
H      1.0      0.0953000000    1.0338000000    2.4707000000 
H      1.0     -0.9760000000   -0.3922000000    2.1641000000 
H      1.0     -1.4867000000    0.9344000000    3.2379000000 
H      1.0     -0.1715000000    4.4039000000   -1.5796000000 
H      1.0      0.6144000000    5.2448000000   -0.2220000000 
H      1.0     -0.7658000000    4.2145000000    0.1149000000 
 $END