!   File created by the GAMESS Input Deck Generator Plugin for Avogadro
 $BASIS GBASIS=CCD $END
 $CONTRL SCFTYP=RHF RUNTYP=HESSIAN EXETYP=RUN DFTTYP=B3LYP
MAXIT=200 ICHARG=0 MULT=1 ISPHER=1 $END
 $SYSTEM TIMLIM=1300 MWORDS=100 PARALL=.TRUE. $END
 $SCF DIRSCF=.TRUE. $END
 $STATPT HESS=READ $END

 $DATA
Title
C1
N      7.0     -0.5730000000    1.7092000000    1.8904000000 
C      6.0     -0.5260000000    0.3578000000    2.2647000000 
C      6.0     -0.1911000000   -0.6249000000    1.4181000000 
C      6.0      0.2334000000   -0.2918000000    0.0427000000 
C      6.0     -0.0164000000    0.9828000000   -0.3746000000 
C      6.0     -0.6030000000    2.0009000000    0.5067000000 
C      6.0     -1.4210000000    3.1407000000   -0.0101000000 
C      6.0     -2.7612000000    3.4501000000    0.5448000000 
C      6.0     -3.6169000000    4.2773000000   -0.0962000000 
C      6.0     -3.2344000000    4.8981000000   -1.3525000000 
C      6.0     -1.9816000000    4.7095000000   -1.7897000000 
N      7.0     -1.0268000000    3.9206000000   -1.1206000000 
C      6.0     -0.7618000000    2.7476000000    2.8908000000 
C      6.0      0.3766000000    4.0516000000   -1.5076000000 
N      7.0      0.8533000000   -1.2697000000   -0.7566000000 
C      6.0      1.7740000000   -0.8922000000   -1.8322000000 
C      6.0      0.8955000000   -2.6823000000   -0.3732000000 
H      1.0     -0.8382000000    0.1448000000    3.2859000000 
H      1.0     -0.2407000000   -1.6668000000    1.7514000000 
H      1.0      0.2312000000    1.2748000000   -1.3891000000 
H      1.0     -3.0538000000    3.0313000000    1.5001000000 
H      1.0     -4.5814000000    4.5151000000    0.3367000000 
H      1.0     -3.9328000000    5.5400000000   -1.8661000000 
H      1.0     -1.6243000000    5.1556000000   -2.7168000000 
H      1.0     -0.7457000000    3.7501000000    2.4486000000 
H      1.0      0.0488000000    2.8220000000    3.6201000000 
H      1.0     -1.7048000000    2.6121000000    3.4303000000 
H      1.0      0.6122000000    3.3909000000   -2.3609000000 
H      1.0      1.0453000000    3.8144000000   -0.6787000000 
H      1.0      0.6022000000    5.0763000000   -1.8098000000 
H      1.0      1.2390000000   -0.4107000000   -2.6564000000 
H      1.0      2.2977000000   -1.7502000000   -2.2614000000 
H      1.0      2.5534000000   -0.2211000000   -1.4468000000 
H      1.0      1.2818000000   -3.3130000000   -1.1840000000 
H      1.0      1.5687000000   -2.8003000000    0.5003000000 
H      1.0     -0.1046000000   -3.0497000000   -0.1421000000 
 $END